17
Properties=species:S:1:pos:R:3:mulliken:R:1:forces:R:3 smiles=O=C(O)c1ccc(N)cc1 connectivity="_JSON [[0, 1, 2.0], [1, 2, 1.0], [1, 3, 1.0], [3, 4, 1.5], [4, 5, 1.5], [5, 6, 1.5], [6, 7, 1.0], [6, 8, 1.5], [8, 9, 1.5], [9, 3, 1.5], [2, 10, 1.0], [4, 11, 1.0], [5, 12, 1.0], [7, 13, 1.0], [7, 14, 1.0], [8, 15, 1.0], [9, 16, 1.0]]" spin=0 method=GFN2-xTB frame_kind=equilibrium charge=0 fit_config="{\"temperature\": 500.0, \"n_mode_frames\": 40, \"n_conformers\": 0, \"torsion_step_deg\": 15.0, \"hessian_delta\": 0.01, \"fmax\": 0.001, \"energy_weight\": null, \"regularization\": 0.001, \"seed\": 0, \"bond_form\": \"morse\", \"electrostatics\": \"mulliken\", \"n_cycles\": 200, \"cycle_tol\": 0.0001}" energy=-805.832686081506 pbc="F F F"
O       -3.17491050       1.13840151       0.58459684      -0.43335583       0.00062174      -0.00020583       0.00011491
C       -2.55593779       0.27528812       0.00655525       0.35109951      -0.00012950      -0.00010056      -0.00037331
O       -3.18840170      -0.67406171      -0.71459695      -0.39152518       0.00008301      -0.00014113       0.00000432
C       -1.09535799       0.14082124       0.00571917      -0.03482297      -0.00044070       0.00035407       0.00005329
C       -0.33340625       1.07069311       0.71699579      -0.01985957       0.00049334       0.00020141       0.00000396
C        1.03723936       0.97777836       0.74455854      -0.05869364       0.00023249      -0.00025728       0.00001911
C        1.69175703      -0.05175621       0.05763134       0.08974758       0.00008747      -0.00060180       0.00000061
N        3.05821288      -0.11354333       0.03453128      -0.26010419      -0.00077881       0.00057963       0.00018384
C        0.92519981      -0.98149208      -0.65479996      -0.05974923      -0.00056748      -0.00027949      -0.00022123
C       -0.44650039      -0.88643812      -0.68118753      -0.02128753      -0.00023200       0.00039669       0.00000689
H       -4.14436824      -0.52100819      -0.66918114       0.32294953      -0.00042335       0.00029059       0.00027152
H       -0.84650287       1.85975960       1.24523264       0.05918578      -0.00039546      -0.00048121      -0.00033205
H        1.62349871       1.69860028       1.29610871       0.03405372      -0.00045161       0.00042447       0.00027946
H        3.56665249       0.42102481       0.71768269       0.16769187       0.00092505       0.00028874       0.00017324
H        3.48809852      -0.96902660      -0.27254615       0.16732332       0.00028639      -0.00029239      -0.00034606
H        1.42606199      -1.77775825      -1.18676033       0.03243066       0.00012919      -0.00049447       0.00021153
H       -1.03133506      -1.60728254      -1.23054019       0.05491618       0.00056025       0.00031854      -0.00005003
