3
Properties=species:S:1:pos:R:3:mulliken:R:1:forces:R:3 smiles=O connectivity="_JSON [[0, 1, 1.0], [0, 2, 1.0]]" spin=0 method=GFN2-xTB frame_kind=equilibrium charge=0 fit_config="{\"temperature\": 500.0, \"n_mode_frames\": 40, \"n_conformers\": 20, \"torsion_step_deg\": 15.0, \"hessian_delta\": 0.01, \"fmax\": 0.001, \"energy_weight\": null, \"regularization\": 0.001, \"seed\": 0, \"bond_form\": \"morse\", \"electrostatics\": \"fixed\", \"n_cycles\": 200, \"cycle_tol\": 0.0001}" energy=-137.97654239766177 pbc="F F F"
O       -0.00167480       0.37935845      -0.00000000      -0.56471670       0.00002436       0.00019305       0.00000000
H       -0.77134023      -0.19308768       0.00000000       0.28235837      -0.00017885      -0.00010655      -0.00000000
H        0.77301503      -0.18627078       0.00000000       0.28235833       0.00015450      -0.00008650      -0.00000000
3
Properties=species:S:1:pos:R:3:mulliken:R:1:forces:R:3 smiles=O connectivity="_JSON [[0, 1, 1.0], [0, 2, 1.0]]" spin=0 method=GFN2-xTB frame_kind=hessian hessian_column=0 hessian_sign=1 hessian_delta=0.01 energy=-137.9735810200612 pbc="F F F"
O        0.00832520       0.37935845      -0.00000000      -0.56471790      -0.59246424       0.01548679       0.00000000
H       -0.77134023      -0.19308768       0.00000000       0.28196927       0.28663608       0.21059073      -0.00000000
H        0.77301503      -0.18627078       0.00000000       0.28274863       0.30582815      -0.22607752      -0.00000000
3
Properties=species:S:1:pos:R:3:mulliken:R:1:forces:R:3 smiles=O connectivity="_JSON [[0, 1, 1.0], [0, 2, 1.0]]" spin=0 method=GFN2-xTB frame_kind=hessian hessian_column=0 hessian_sign=-1 hessian_delta=0.01 energy=-137.9735819629575 pbc="F F F"
O       -0.01167480       0.37935845      -0.00000000      -0.56470191       0.59208400       0.01729430      -0.00000000
H       -0.77134023      -0.19308768       0.00000000       0.28274064      -0.30213682      -0.22697546       0.00000000
H        0.77301503      -0.18627078       0.00000000       0.28196127      -0.28994718       0.20968116       0.00000000
3
Properties=species:S:1:pos:R:3:mulliken:R:1:forces:R:3 smiles=O connectivity="_JSON [[0, 1, 1.0], [0, 2, 1.0]]" spin=0 method=GFN2-xTB frame_kind=hessian hessian_column=1 hessian_sign=1 hessian_delta=0.01 energy=-137.97461934273838 pbc="F F F"
O       -0.00167480       0.38935845      -0.00000000      -0.56292381      -0.00075631      -0.38378609       0.00000000
H       -0.77134023      -0.19308768       0.00000000       0.28146022       0.17307675       0.19356322      -0.00000000
H        0.77301503      -0.18627078       0.00000000       0.28146359      -0.17232044       0.19022286      -0.00000000
3
Properties=species:S:1:pos:R:3:mulliken:R:1:forces:R:3 smiles=O connectivity="_JSON [[0, 1, 1.0], [0, 2, 1.0]]" spin=0 method=GFN2-xTB frame_kind=hessian hessian_column=1 hessian_sign=-1 hessian_delta=0.01 energy=-137.97459563677037 pbc="F F F"
O       -0.00167480       0.36935845      -0.00000000      -0.56654098       0.00106491       0.39008689      -0.00000000
H       -0.77134023      -0.19308768       0.00000000       0.28327224      -0.18369292      -0.19687197       0.00000000
H        0.77301503      -0.18627078       0.00000000       0.28326874       0.18262801      -0.19321492       0.00000000
3
Properties=species:S:1:pos:R:3:mulliken:R:1:forces:R:3 smiles=O connectivity="_JSON [[0, 1, 1.0], [0, 2, 1.0]]" spin=0 method=GFN2-xTB frame_kind=hessian hessian_column=2 hessian_sign=1 hessian_delta=0.01 energy=-137.97654226579752 pbc="F F F"
O       -0.00167480       0.37935845       0.01000000      -0.56470081       0.00003935      -0.00320663      -0.00005635
H       -0.77134023      -0.19308768       0.00000000       0.28235042       0.00137625       0.00160019       0.00002801
H        0.77301503      -0.18627078       0.00000000       0.28235039      -0.00141560       0.00160644       0.00002834
3
Properties=species:S:1:pos:R:3:mulliken:R:1:forces:R:3 smiles=O connectivity="_JSON [[0, 1, 1.0], [0, 2, 1.0]]" spin=0 method=GFN2-xTB frame_kind=hessian hessian_column=2 hessian_sign=-1 hessian_delta=0.01 energy=-137.9765422657975 pbc="F F F"
O       -0.00167480       0.37935845      -0.01000000      -0.56470081       0.00003935      -0.00320663       0.00005635
H       -0.77134023      -0.19308768       0.00000000       0.28235042       0.00137625       0.00160019      -0.00002801
H        0.77301503      -0.18627078       0.00000000       0.28235039      -0.00141560       0.00160644      -0.00002834
3
Properties=species:S:1:pos:R:3:mulliken:R:1:forces:R:3 smiles=O connectivity="_JSON [[0, 1, 1.0], [0, 2, 1.0]]" spin=0 method=GFN2-xTB frame_kind=hessian hessian_column=3 hessian_sign=1 hessian_delta=0.01 energy=-137.9748774476579 pbc="F F F"
O       -0.00167480       0.37935845      -0.00000000      -0.56529645       0.30198258       0.18668584       0.00000000
H       -0.76134023      -0.19308768       0.00000000       0.28284491      -0.33553300      -0.20707163      -0.00000000
H        0.77301503      -0.18627078       0.00000000       0.28245154       0.03355041       0.02038579      -0.00000000
3
Properties=species:S:1:pos:R:3:mulliken:R:1:forces:R:3 smiles=O connectivity="_JSON [[0, 1, 1.0], [0, 2, 1.0]]" spin=0 method=GFN2-xTB frame_kind=hessian hessian_column=3 hessian_sign=-1 hessian_delta=0.01 energy=-137.974934751776 pbc="F F F"
O       -0.00167480       0.37935845      -0.00000000      -0.56414346      -0.28679093      -0.17033834      -0.00000000
H       -0.78134023      -0.19308768       0.00000000       0.28188026       0.31907829       0.19065927       0.00000000
H        0.77301503      -0.18627078       0.00000000       0.28226320      -0.03228736      -0.02032093       0.00000000
3
Properties=species:S:1:pos:R:3:mulliken:R:1:forces:R:3 smiles=O connectivity="_JSON [[0, 1, 1.0], [0, 2, 1.0]]" spin=0 method=GFN2-xTB frame_kind=hessian hessian_column=4 hessian_sign=1 hessian_delta=0.01 energy=-137.97564212137075 pbc="F F F"
O       -0.00167480       0.37935845      -0.00000000      -0.56562673       0.22404280       0.19689671       0.00000000
H       -0.77134023      -0.18308768       0.00000000       0.28295711      -0.20408516      -0.18040517      -0.00000000
H        0.77301503      -0.18627078       0.00000000       0.28266962      -0.01995764      -0.01649154      -0.00000000
3
Properties=species:S:1:pos:R:3:mulliken:R:1:forces:R:3 smiles=O connectivity="_JSON [[0, 1, 1.0], [0, 2, 1.0]]" spin=0 method=GFN2-xTB frame_kind=hessian hessian_column=4 hessian_sign=-1 hessian_delta=0.01 energy=-137.97565394201692 pbc="F F F"
O       -0.00167480       0.37935845      -0.00000000      -0.56381306      -0.21326154      -0.19355003      -0.00000000
H       -0.77134023      -0.20308768       0.00000000       0.28176159       0.19338541       0.17730421       0.00000000
H        0.77301503      -0.18627078       0.00000000       0.28205147       0.01987613       0.01624582       0.00000000
3
Properties=species:S:1:pos:R:3:mulliken:R:1:forces:R:3 smiles=O connectivity="_JSON [[0, 1, 1.0], [0, 2, 1.0]]" spin=0 method=GFN2-xTB frame_kind=hessian hessian_column=5 hessian_sign=1 hessian_delta=0.01 energy=-137.9765423458747 pbc="F F F"
O       -0.00167480       0.37935845      -0.00000000      -0.56471085      -0.00188575      -0.00124112       0.00002308
H       -0.77134023      -0.19308768       0.01000000       0.28235418       0.00174939       0.00132097      -0.00002290
H        0.77301503      -0.18627078       0.00000000       0.28235667       0.00013636      -0.00007985      -0.00000017
3
Properties=species:S:1:pos:R:3:mulliken:R:1:forces:R:3 smiles=O connectivity="_JSON [[0, 1, 1.0], [0, 2, 1.0]]" spin=0 method=GFN2-xTB frame_kind=hessian hessian_column=5 hessian_sign=-1 hessian_delta=0.01 energy=-137.97654234587472 pbc="F F F"
O       -0.00167480       0.37935845      -0.00000000      -0.56471085      -0.00188575      -0.00124112      -0.00002308
H       -0.77134023      -0.19308768      -0.01000000       0.28235418       0.00174939       0.00132097       0.00002290
H        0.77301503      -0.18627078       0.00000000       0.28235667       0.00013636      -0.00007985       0.00000017
3
Properties=species:S:1:pos:R:3:mulliken:R:1:forces:R:3 smiles=O connectivity="_JSON [[0, 1, 1.0], [0, 2, 1.0]]" spin=0 method=GFN2-xTB frame_kind=hessian hessian_column=6 hessian_sign=1 hessian_delta=0.01 energy=-137.97491773336088 pbc="F F F"
O       -0.00167480       0.37935845      -0.00000000      -0.56413540       0.29012618      -0.16941079      -0.00000000
H       -0.77134023      -0.19308768       0.00000000       0.28226043       0.03226292      -0.01991140       0.00000000
H        0.78301503      -0.18627078       0.00000000       0.28187496      -0.32238910       0.18932219       0.00000000
3
Properties=species:S:1:pos:R:3:mulliken:R:1:forces:R:3 smiles=O connectivity="_JSON [[0, 1, 1.0], [0, 2, 1.0]]" spin=0 method=GFN2-xTB frame_kind=hessian hessian_column=6 hessian_sign=-1 hessian_delta=0.01 energy=-137.9748594843528 pbc="F F F"
O       -0.00167480       0.37935845      -0.00000000      -0.56530438      -0.30564975       0.18580587      -0.00000000
H       -0.77134023      -0.19308768       0.00000000       0.28245424      -0.03357487       0.01992501       0.00000000
H        0.76301503      -0.18627078       0.00000000       0.28285014       0.33922462      -0.20573088       0.00000000
3
Properties=species:S:1:pos:R:3:mulliken:R:1:forces:R:3 smiles=O connectivity="_JSON [[0, 1, 1.0], [0, 2, 1.0]]" spin=0 method=GFN2-xTB frame_kind=hessian hessian_column=7 hessian_sign=1 hessian_delta=0.01 energy=-137.9756602629768 pbc="F F F"
O       -0.00167480       0.37935845      -0.00000000      -0.56562168      -0.22295183       0.19325969      -0.00000000
H       -0.77134023      -0.19308768       0.00000000       0.28266888       0.02036772      -0.01650850       0.00000000
H        0.77301503      -0.17627078       0.00000000       0.28295280       0.20258410      -0.17675119       0.00000000
3
Properties=species:S:1:pos:R:3:mulliken:R:1:forces:R:3 smiles=O connectivity="_JSON [[0, 1, 1.0], [0, 2, 1.0]]" spin=0 method=GFN2-xTB frame_kind=hessian hessian_column=7 hessian_sign=-1 hessian_delta=0.01 energy=-137.97567078049897 pbc="F F F"
O       -0.00167480       0.37935845      -0.00000000      -0.56381824       0.21253134      -0.19018963       0.00000000
H       -0.77134023      -0.19308768       0.00000000       0.28205240      -0.02033618       0.01622885      -0.00000000
H        0.77301503      -0.19627078       0.00000000       0.28176584      -0.19219516       0.17396078      -0.00000000
3
Properties=species:S:1:pos:R:3:mulliken:R:1:forces:R:3 smiles=O connectivity="_JSON [[0, 1, 1.0], [0, 2, 1.0]]" spin=0 method=GFN2-xTB frame_kind=hessian hessian_column=8 hessian_sign=1 hessian_delta=0.01 energy=-137.97654234424286 pbc="F F F"
O       -0.00167480       0.37935845      -0.00000000      -0.56471085       0.00194704      -0.00122419       0.00002340
H       -0.77134023      -0.19308768       0.00000000       0.28235670      -0.00016077      -0.00009974      -0.00000017
H        0.77301503      -0.18627078       0.01000000       0.28235415      -0.00178626       0.00132393      -0.00002323
3
Properties=species:S:1:pos:R:3:mulliken:R:1:forces:R:3 smiles=O connectivity="_JSON [[0, 1, 1.0], [0, 2, 1.0]]" spin=0 method=GFN2-xTB frame_kind=hessian hessian_column=8 hessian_sign=-1 hessian_delta=0.01 energy=-137.97654234424283 pbc="F F F"
O       -0.00167480       0.37935845      -0.00000000      -0.56471085       0.00194704      -0.00122419      -0.00002340
H       -0.77134023      -0.19308768       0.00000000       0.28235670      -0.00016077      -0.00009974       0.00000017
H        0.77301503      -0.18627078      -0.01000000       0.28235415      -0.00178626       0.00132393       0.00002323
3
Properties=species:S:1:pos:R:3:mulliken:R:1:forces:R:3 smiles=O connectivity="_JSON [[0, 1, 1.0], [0, 2, 1.0]]" spin=0 method=GFN2-xTB frame_kind=mode energy=-137.9671491154806 pbc="F F F"
O       -0.00297695       0.37892991      -0.00000000      -0.56474583       1.00952757      -0.01342854      -0.00000000
H       -0.76685303      -0.18208690       0.00000000       0.28303512      -0.38819250      -0.36048533       0.00000000
H        0.78919563      -0.19046923      -0.00000000       0.28171070      -0.62133507       0.37391387       0.00000000
3
Properties=species:S:1:pos:R:3:mulliken:R:1:forces:R:3 smiles=O connectivity="_JSON [[0, 1, 1.0], [0, 2, 1.0]]" spin=0 method=GFN2-xTB frame_kind=mode energy=-137.96771957536785 pbc="F F F"
O       -0.00241192       0.37960202      -0.00000000      -0.56292189       0.53287103      -0.47579898       0.00000000
H       -0.77768979      -0.19077034       0.00000000       0.28182633       0.18777611       0.04614270      -0.00000000
H        0.79106419      -0.19245374      -0.00000000       0.28109556      -0.72064714       0.42965628      -0.00000000
3
Properties=species:S:1:pos:R:3:mulliken:R:1:forces:R:3 smiles=O connectivity="_JSON [[0, 1, 1.0], [0, 2, 1.0]]" spin=0 method=GFN2-xTB frame_kind=mode energy=-137.91080792271669 pbc="F F F"
O       -0.00020853       0.37171134      -0.00000000      -0.57619880      -1.40741349       1.85941398       0.00000000
H       -0.80326704      -0.14086483       0.00000000       0.28738664       0.13414530      -0.48119850      -0.00000000
H        0.78166916      -0.11711408      -0.00000000       0.28881216       1.27326819      -1.37821548      -0.00000000
3
Properties=species:S:1:pos:R:3:mulliken:R:1:forces:R:3 smiles=O connectivity="_JSON [[0, 1, 1.0], [0, 2, 1.0]]" spin=0 method=GFN2-xTB frame_kind=mode energy=-137.93149097431768 pbc="F F F"
O       -0.00178954       0.38636798      -0.00000000      -0.55764316       0.06087918      -1.62003695       0.00000000
H       -0.74560597      -0.24811726      -0.00000000       0.27886750       0.16274125       0.78885034      -0.00000000
H        0.74910199      -0.24250084       0.00000000       0.27877566      -0.22362043       0.83118661      -0.00000000
3
Properties=species:S:1:pos:R:3:mulliken:R:1:forces:R:3 smiles=O connectivity="_JSON [[0, 1, 1.0], [0, 2, 1.0]]" spin=0 method=GFN2-xTB frame_kind=mode energy=-137.82194802897234 pbc="F F F"
O        0.00081130       0.39094322      -0.00000000      -0.55836967      -1.55063471      -1.98191012       0.00000000
H       -0.72942161      -0.29959176      -0.00000000       0.27767811       0.36147465       1.68689564      -0.00000000
H        0.69163691      -0.26364809       0.00000000       0.28069157       1.18916006       0.29501448       0.00000000
3
Properties=species:S:1:pos:R:3:mulliken:R:1:forces:R:3 smiles=O connectivity="_JSON [[0, 1, 1.0], [0, 2, 1.0]]" spin=0 method=GFN2-xTB frame_kind=mode energy=-137.95629089906814 pbc="F F F"
O       -0.00104947       0.38367637      -0.00000000      -0.55947851      -0.43329334      -1.10340636      -0.00000000
H       -0.76508210      -0.23107419      -0.00000000       0.27939811       0.46937553       0.72483295       0.00000000
H        0.75683162      -0.21682080       0.00000000       0.28008040      -0.03608219       0.37857340       0.00000000
3
Properties=species:S:1:pos:R:3:mulliken:R:1:forces:R:3 smiles=O connectivity="_JSON [[0, 1, 1.0], [0, 2, 1.0]]" spin=0 method=GFN2-xTB frame_kind=mode energy=-137.94790155019908 pbc="F F F"
O       -0.00139834       0.37589575      -0.00000000      -0.57113190      -0.25660603       1.50103707       0.00000000
H       -0.76713215      -0.16710603       0.00000000       0.28542657      -0.74386412      -0.66599308      -0.00000000
H        0.76441888      -0.15729078      -0.00000000       0.28570532       1.00047015      -0.83504399       0.00000000
3
Properties=species:S:1:pos:R:3:mulliken:R:1:forces:R:3 smiles=O connectivity="_JSON [[0, 1, 1.0], [0, 2, 1.0]]" spin=0 method=GFN2-xTB frame_kind=mode energy=-137.92403876700737 pbc="F F F"
O       -0.00236516       0.37367191      -0.00000000      -0.56998317       0.52921022       0.17434353       0.00000000
H       -0.81574976      -0.14399420       0.00000000       0.28530570       0.65327185      -0.25551494      -0.00000000
H        0.82838197      -0.14510282      -0.00000000       0.28467748      -1.18248207       0.08117141       0.00000000
3
Properties=species:S:1:pos:R:3:mulliken:R:1:forces:R:3 smiles=O connectivity="_JSON [[0, 1, 1.0], [0, 2, 1.0]]" spin=0 method=GFN2-xTB frame_kind=mode energy=-137.94695367245905 pbc="F F F"
O       -0.00014098       0.37485471      -0.00000000      -0.57002956      -1.26663981       0.70461293       0.00000000
H       -0.80724325      -0.16630255       0.00000000       0.28428221       0.75099978       0.07524634      -0.00000000
H        0.78457313      -0.14156942      -0.00000000       0.28574735       0.51564003      -0.77985927      -0.00000000
3
Properties=species:S:1:pos:R:3:mulliken:R:1:forces:R:3 smiles=O connectivity="_JSON [[0, 1, 1.0], [0, 2, 1.0]]" spin=0 method=GFN2-xTB frame_kind=mode energy=-137.9519344737497 pbc="F F F"
O       -0.00214549       0.38446778      -0.00000000      -0.55928097       0.30951070      -1.16560785       0.00000000
H       -0.74959870      -0.23093646      -0.00000000       0.27988190      -0.00764936       0.46199814      -0.00000000
H        0.75874424      -0.22952041       0.00000000       0.27939908      -0.30186134       0.70360971      -0.00000000
3
Properties=species:S:1:pos:R:3:mulliken:R:1:forces:R:3 smiles=O connectivity="_JSON [[0, 1, 1.0], [0, 2, 1.0]]" spin=0 method=GFN2-xTB frame_kind=mode energy=-137.95222259636228 pbc="F F F"
O       -0.00137334       0.38454662      -0.00000000      -0.56016011      -0.22346906      -0.97747253       0.00000000
H       -0.74895159      -0.23604954      -0.00000000       0.27990239       0.04682187       0.58016796      -0.00000000
H        0.74584160      -0.22565898       0.00000000       0.28025772       0.17664719       0.39730457      -0.00000000
3
Properties=species:S:1:pos:R:3:mulliken:R:1:forces:R:3 smiles=O connectivity="_JSON [[0, 1, 1.0], [0, 2, 1.0]]" spin=0 method=GFN2-xTB frame_kind=mode energy=-137.9665572919229 pbc="F F F"
O       -0.00238566       0.37643225      -0.00000000      -0.56837060       0.60367192       0.59643227       0.00000000
H       -0.77722122      -0.16568315       0.00000000       0.28454855      -0.35772196      -0.51062336      -0.00000000
H        0.79017884      -0.16722868      -0.00000000       0.28382205      -0.24594996      -0.08580891       0.00000000
3
Properties=species:S:1:pos:R:3:mulliken:R:1:forces:R:3 smiles=O connectivity="_JSON [[0, 1, 1.0], [0, 2, 1.0]]" spin=0 method=GFN2-xTB frame_kind=mode energy=-137.95408601225316 pbc="F F F"
O       -0.00328591       0.38270241      -0.00000000      -0.56157778       1.17594299      -0.54411925      -0.00000000
H       -0.74245606      -0.21022029       0.00000000       0.28164788      -0.67122282      -0.18695125       0.00000000
H        0.76970251      -0.22221576       0.00000000       0.27992990      -0.50472017       0.73107050      -0.00000000
3
Properties=species:S:1:pos:R:3:mulliken:R:1:forces:R:3 smiles=O connectivity="_JSON [[0, 1, 1.0], [0, 2, 1.0]]" spin=0 method=GFN2-xTB frame_kind=mode energy=-137.85344086343858 pbc="F F F"
O       -0.00473284       0.37388367      -0.00000000      -0.56842370       2.08760335      -0.09855425      -0.00000000
H       -0.81082801      -0.13189616       0.00000000       0.28549515       0.22034187      -0.62008595      -0.00000000
H        0.86104011      -0.16056160      -0.00000000       0.28292855      -2.30794521       0.71864020       0.00000000
3
Properties=species:S:1:pos:R:3:mulliken:R:1:forces:R:3 smiles=O connectivity="_JSON [[0, 1, 1.0], [0, 2, 1.0]]" spin=0 method=GFN2-xTB frame_kind=mode energy=-137.92576957892985 pbc="F F F"
O       -0.00218010       0.37173372      -0.00000000      -0.57581165       0.50394849       1.64507791       0.00000000
H       -0.79170931      -0.12953214       0.00000000       0.28816992      -0.60280029      -0.98840568      -0.00000000
H        0.80140421      -0.12880185      -0.00000000       0.28764173       0.09885179      -0.65667223      -0.00000000
3
Properties=species:S:1:pos:R:3:mulliken:R:1:forces:R:3 smiles=O connectivity="_JSON [[0, 1, 1.0], [0, 2, 1.0]]" spin=0 method=GFN2-xTB frame_kind=mode energy=-137.81948375608417 pbc="F F F"
O       -0.00566487       0.37880769      -0.00000000      -0.56974129       3.97501417       2.16263704      -0.00000000
H       -0.70583984      -0.16522127       0.00000000       0.28716689      -3.76261391      -2.60743753       0.00000000
H        0.77084511      -0.20539640       0.00000000       0.28257441      -0.21240026       0.44480049      -0.00000000
3
Properties=species:S:1:pos:R:3:mulliken:R:1:forces:R:3 smiles=O connectivity="_JSON [[0, 1, 1.0], [0, 2, 1.0]]" spin=0 method=GFN2-xTB frame_kind=mode energy=-137.87411938712387 pbc="F F F"
O       -0.00235654       0.36877227      -0.00000000      -0.58140360       0.75206480       2.44613161       0.00000000
H       -0.79392590      -0.10493722       0.00000000       0.29106014      -1.13065339      -1.45848721      -0.00000000
H        0.80642131      -0.10639099      -0.00000000       0.29034346       0.37858859      -0.98764441      -0.00000000
3
Properties=species:S:1:pos:R:3:mulliken:R:1:forces:R:3 smiles=O connectivity="_JSON [[0, 1, 1.0], [0, 2, 1.0]]" spin=0 method=GFN2-xTB frame_kind=mode energy=-137.9352286515527 pbc="F F F"
O       -0.00303742       0.38521383      -0.00000000      -0.56061830       0.95948649      -0.86529400       0.00000000
H       -0.72667961      -0.23159107       0.00000000       0.28105880      -0.77255967       0.03932027      -0.00000000
H        0.74998201      -0.24070804       0.00000000       0.27955950      -0.18692683       0.82597373      -0.00000000
3
Properties=species:S:1:pos:R:3:mulliken:R:1:forces:R:3 smiles=O connectivity="_JSON [[0, 1, 1.0], [0, 2, 1.0]]" spin=0 method=GFN2-xTB frame_kind=mode energy=-137.93305866331332 pbc="F F F"
O       -0.00257541       0.38504046      -0.00000000      -0.56230506       0.66495903      -0.49359179       0.00000000
H       -0.72119821      -0.23287207       0.00000000       0.28165367      -0.95987391      -0.03060560      -0.00000000
H        0.73716757      -0.23667558       0.00000000       0.28065140       0.29491488       0.52419738      -0.00000000
3
Properties=species:S:1:pos:R:3:mulliken:R:1:forces:R:3 smiles=O connectivity="_JSON [[0, 1, 1.0], [0, 2, 1.0]]" spin=0 method=GFN2-xTB frame_kind=mode energy=-137.92927405182982 pbc="F F F"
O       -0.00031925       0.37766046      -0.00000000      -0.56338530      -0.89341687      -0.67089358      -0.00000000
H       -0.82202732      -0.18767083      -0.00000000       0.28108207       1.52447937       0.65135939      -0.00000000
H        0.80218671      -0.16473483      -0.00000000       0.28230322      -0.63106251       0.01953419       0.00000000
3
Properties=species:S:1:pos:R:3:mulliken:R:1:forces:R:3 smiles=O connectivity="_JSON [[0, 1, 1.0], [0, 2, 1.0]]" spin=0 method=GFN2-xTB frame_kind=mode energy=-137.89161626882938 pbc="F F F"
O       -0.00523265       0.38310685      -0.00000000      -0.55781188       2.25106201      -1.21086882       0.00000000
H       -0.75109537      -0.20216288      -0.00000000       0.28069656      -0.50106992      -0.25102502      -0.00000000
H        0.80924042      -0.23669181       0.00000000       0.27711532      -1.74999209       1.46189384      -0.00000000
3
Properties=species:S:1:pos:R:3:mulliken:R:1:forces:R:3 smiles=O connectivity="_JSON [[0, 1, 1.0], [0, 2, 1.0]]" spin=0 method=GFN2-xTB frame_kind=mode energy=-137.96743528580058 pbc="F F F"
O       -0.00115700       0.38129991      -0.00000000      -0.56413698      -0.42199723       0.03258682      -0.00000000
H       -0.75582804      -0.21148704       0.00000000       0.28178235      -0.19381590       0.14471914       0.00000000
H        0.74928426      -0.19868790       0.00000000       0.28235463       0.61581313      -0.17730595       0.00000000
3
Properties=species:S:1:pos:R:3:mulliken:R:1:forces:R:3 smiles=O connectivity="_JSON [[0, 1, 1.0], [0, 2, 1.0]]" spin=0 method=GFN2-xTB frame_kind=mode energy=-137.87937882542008 pbc="F F F"
O       -0.00292313       0.36981956      -0.00000000      -0.57973767       1.33966124       2.41791429       0.00000000
H       -0.78322290      -0.10993519       0.00000000       0.29051472      -1.53025915      -1.63354318      -0.00000000
H        0.80471129      -0.11801630      -0.00000000       0.28922295       0.19059792      -0.78437111      -0.00000000
3
Properties=species:S:1:pos:R:3:mulliken:R:1:forces:R:3 smiles=O connectivity="_JSON [[0, 1, 1.0], [0, 2, 1.0]]" spin=0 method=GFN2-xTB frame_kind=mode energy=-137.85671378153327 pbc="F F F"
O       -0.00311378       0.38995606      -0.00000000      -0.55973668       0.91043844      -1.67541208       0.00000000
H       -0.69713102      -0.26877479       0.00000000       0.28069458      -0.99024008       0.43370914      -0.00000000
H        0.72164537      -0.27879650       0.00000000       0.27904210       0.07980164       1.24170294      -0.00000000
3
Properties=species:S:1:pos:R:3:mulliken:R:1:forces:R:3 smiles=O connectivity="_JSON [[0, 1, 1.0], [0, 2, 1.0]]" spin=0 method=GFN2-xTB frame_kind=mode energy=-137.88040580391757 pbc="F F F"
O       -0.00536701       0.37534904      -0.00000000      -0.56772925       2.78546928       0.30057989       0.00000000
H       -0.78100765      -0.13974587       0.00000000       0.28556896      -0.82993169      -1.08495196      -0.00000000
H        0.84128528      -0.17597174      -0.00000000       0.28216029      -1.95553759       0.78437207       0.00000000
3
Properties=species:S:1:pos:R:3:mulliken:R:1:forces:R:3 smiles=O connectivity="_JSON [[0, 1, 1.0], [0, 2, 1.0]]" spin=0 method=GFN2-xTB frame_kind=mode energy=-137.91130135651224 pbc="F F F"
O       -0.00361082       0.38668073      -0.00000000      -0.55734991       1.21733775      -1.61462031       0.00000000
H       -0.73031637      -0.23995362      -0.00000000       0.27972339      -0.44457888       0.30970072      -0.00000000
H        0.76271974      -0.25562858       0.00000000       0.27762652      -0.77275887       1.30491959      -0.00000000
3
Properties=species:S:1:pos:R:3:mulliken:R:1:forces:R:3 smiles=O connectivity="_JSON [[0, 1, 1.0], [0, 2, 1.0]]" spin=0 method=GFN2-xTB frame_kind=mode energy=-137.87843217572976 pbc="F F F"
O       -0.00204623       0.37629698      -0.00000000      -0.57346958       0.41228300       2.66734605      -0.00000000
H       -0.73527776      -0.16639437       0.00000000       0.28695706      -2.21370290      -1.49802966       0.00000000
H        0.74284797      -0.16437197      -0.00000000       0.28651252       1.80141990      -1.16931639       0.00000000
3
Properties=species:S:1:pos:R:3:mulliken:R:1:forces:R:3 smiles=O connectivity="_JSON [[0, 1, 1.0], [0, 2, 1.0]]" spin=0 method=GFN2-xTB frame_kind=mode energy=-137.9410174704248 pbc="F F F"
O        0.00053141       0.38296807      -0.00000000      -0.56055638      -1.57052777      -0.75005764       0.00000000
H       -0.77749590      -0.23467841      -0.00000000       0.27909686       0.86544586       0.98888145      -0.00000000
H        0.74415366      -0.20197405       0.00000000       0.28145951       0.70508190      -0.23882381       0.00000000
3
Properties=species:S:1:pos:R:3:mulliken:R:1:forces:R:3 smiles=O connectivity="_JSON [[0, 1, 1.0], [0, 2, 1.0]]" spin=0 method=GFN2-xTB frame_kind=mode energy=-137.92532292813917 pbc="F F F"
O       -0.00288194       0.38465579      -0.00000000      -0.56342206       0.93382926      -0.17456408      -0.00000000
H       -0.71502005      -0.22800034       0.00000000       0.28239518      -1.30769211      -0.30352551       0.00000000
H        0.73585463      -0.23544168       0.00000000       0.28102688       0.37386285       0.47808959      -0.00000000
3
Properties=species:S:1:pos:R:3:mulliken:R:1:forces:R:3 smiles=O connectivity="_JSON [[0, 1, 1.0], [0, 2, 1.0]]" spin=0 method=GFN2-xTB frame_kind=mode energy=-137.87244349460002 pbc="F F F"
O       -0.00509094       0.37413479      -0.00000000      -0.56912543       2.53667151       0.28713843      -0.00000000
H       -0.79371397      -0.13173866       0.00000000       0.28608209      -0.47957769      -0.97148804      -0.00000000
H        0.84960991      -0.16470547      -0.00000000       0.28304334      -2.05709382       0.68434961       0.00000000
3
Properties=species:S:1:pos:R:3:mulliken:R:1:forces:R:3 smiles=O connectivity="_JSON [[0, 1, 1.0], [0, 2, 1.0]]" spin=0 method=GFN2-xTB frame_kind=mode energy=-137.91148918686847 pbc="F F F"
O       -0.00079070       0.37853573      -0.00000000      -0.57032362      -0.89099194       1.83481301      -0.00000000
H       -0.74312498      -0.19155178       0.00000000       0.28465663      -1.15150014      -0.58935648       0.00000000
H        0.73076735      -0.17474918       0.00000000       0.28566698       2.04249208      -1.24545653       0.00000000
3
Properties=species:S:1:pos:R:3:mulliken:R:1:forces:R:3 smiles=O connectivity="_JSON [[0, 1, 1.0], [0, 2, 1.0]]" spin=0 method=GFN2-xTB frame_kind=mode energy=-137.94025173463717 pbc="F F F"
O       -0.00378944       0.38256120      -0.00000000      -0.56300596       1.63818341      -0.12044855      -0.00000000
H       -0.72964162      -0.20611275       0.00000000       0.28266153      -1.26796365      -0.58776207       0.00000000
H        0.76487998      -0.22408225       0.00000000       0.28034443      -0.37021976       0.70821061      -0.00000000
3
Properties=species:S:1:pos:R:3:mulliken:R:1:forces:R:3 smiles=O connectivity="_JSON [[0, 1, 1.0], [0, 2, 1.0]]" spin=0 method=GFN2-xTB frame_kind=mode energy=-137.93341580072706 pbc="F F F"
O        0.00105642       0.37941511      -0.00000000      -0.56300016      -1.97319784      -0.34200105       0.00000000
H       -0.80755360      -0.20957386      -0.00000000       0.28014873       1.38519190       0.89034288      -0.00000000
H        0.76587836      -0.17068341      -0.00000000       0.28285143       0.58800594      -0.54834183      -0.00000000
3
Properties=species:S:1:pos:R:3:mulliken:R:1:forces:R:3 smiles=O connectivity="_JSON [[0, 1, 1.0], [0, 2, 1.0]]" spin=0 method=GFN2-xTB frame_kind=mode energy=-137.90706090168408 pbc="F F F"
O       -0.00371724       0.38543233      -0.00000000      -0.56261651       1.54250220      -0.36084383       0.00000000
H       -0.70713475      -0.22929323       0.00000000       0.28247659      -1.56081524      -0.46886878      -0.00000000
H        0.74122716      -0.24647458       0.00000000       0.28013992       0.01831303       0.82971261      -0.00000000
3
Properties=species:S:1:pos:R:3:mulliken:R:1:forces:R:3 smiles=O connectivity="_JSON [[0, 1, 1.0], [0, 2, 1.0]]" spin=0 method=GFN2-xTB frame_kind=mode energy=-137.93890405256627 pbc="F F F"
O       -0.00346220       0.38166119      -0.00000000      -0.55935703       1.15918769      -1.12504885       0.00000000
H       -0.77110053      -0.20103161      -0.00000000       0.28055638       0.16915691       0.13444508      -0.00000000
H        0.80114492      -0.21487664       0.00000000       0.27880066      -1.32834460       0.99060377      -0.00000000
3
Properties=species:S:1:pos:R:3:mulliken:R:1:forces:R:3 smiles=O connectivity="_JSON [[0, 1, 1.0], [0, 2, 1.0]]" spin=0 method=GFN2-xTB frame_kind=mode energy=-137.9211167013633 pbc="F F F"
O       -0.00297080       0.38656208      -0.00000000      -0.55719917       0.80556859      -1.68187100       0.00000000
H       -0.73739108      -0.24276034      -0.00000000       0.27929155      -0.16701828       0.51463402      -0.00000000
H        0.75963597      -0.25093859       0.00000000       0.27790762      -0.63855031       1.16723698      -0.00000000
3
Properties=species:S:1:pos:R:3:mulliken:R:1:forces:R:3 smiles=O connectivity="_JSON [[0, 1, 1.0], [0, 2, 1.0]]" spin=0 method=GFN2-xTB frame_kind=mode energy=-137.853099639035 pbc="F F F"
O       -0.00053630       0.38972171      -0.00000000      -0.56142657      -0.79956940      -1.35497862      -0.00000000
H       -0.71044192      -0.28194940       0.00000000       0.28000242      -0.40458992       1.03528972       0.00000000
H        0.69404641      -0.26190233       0.00000000       0.28142415       1.20415932       0.31968889       0.00000000
3
Properties=species:S:1:pos:R:3:mulliken:R:1:forces:R:3 smiles=O connectivity="_JSON [[0, 1, 1.0], [0, 2, 1.0]]" spin=0 method=GFN2-xTB frame_kind=mode energy=-137.97529035956313 pbc="F F F"
O       -0.00208446       0.37893390      -0.00000000      -0.56490499       0.32080704      -0.00365706      -0.00000000
H       -0.77247658      -0.18733121       0.00000000       0.28266215      -0.07158899      -0.11479436       0.00000000
H        0.78065350      -0.18528840      -0.00000000       0.28224285      -0.24921804       0.11845142       0.00000000
3
Properties=species:S:1:pos:R:3:mulliken:R:1:forces:R:3 smiles=O connectivity="_JSON [[0, 1, 1.0], [0, 2, 1.0]]" spin=0 method=GFN2-xTB frame_kind=mode energy=-137.91488621709334 pbc="F F F"
O       -0.00455781       0.37705151      -0.00000000      -0.56518851       2.08569565      -0.13472965      -0.00000000
H       -0.78111995      -0.15800500       0.00000000       0.28394597      -0.37289074      -0.65199827       0.00000000
H        0.82855405      -0.18473536      -0.00000000       0.28124254      -1.71280491       0.78672792       0.00000000
3
Properties=species:S:1:pos:R:3:mulliken:R:1:forces:R:3 smiles=O connectivity="_JSON [[0, 1, 1.0], [0, 2, 1.0]]" spin=0 method=GFN2-xTB frame_kind=mode energy=-137.91571666159373 pbc="F F F"
O       -0.00402648       0.37464106      -0.00000000      -0.57205847       2.23542757       1.58065768       0.00000000
H       -0.75861255      -0.14180223       0.00000000       0.28725553      -1.81490118      -1.56170708      -0.00000000
H        0.79761332      -0.16267907      -0.00000000       0.28480294      -0.42052640      -0.01895060      -0.00000000
3
Properties=species:S:1:pos:R:3:mulliken:R:1:forces:R:3 smiles=O connectivity="_JSON [[0, 1, 1.0], [0, 2, 1.0]]" spin=0 method=GFN2-xTB frame_kind=conformer energy=-137.93856700681891 pbc="F F F"
O       -0.00081616       0.36637843      -0.00000000      -0.56418875       0.05430192      -0.58021989       0.00000000
H       -0.81231620      -0.18348211      -0.00000000       0.28213033       1.03815596       0.27257125      -0.00000000
H        0.81313236      -0.18289632       0.00000000       0.28205843      -1.09245789       0.30764865      -0.00000000
3
Properties=species:S:1:pos:R:3:mulliken:R:1:forces:R:3 smiles=O connectivity="_JSON [[0, 1, 1.0], [0, 2, 1.0]]" spin=0 method=GFN2-xTB frame_kind=conformer energy=-137.93856700681891 pbc="F F F"
O       -0.00081616       0.36637843      -0.00000000      -0.56418875       0.05430192      -0.58021989       0.00000000
H       -0.81231620      -0.18348211      -0.00000000       0.28213033       1.03815596       0.27257125      -0.00000000
H        0.81313236      -0.18289632       0.00000000       0.28205843      -1.09245789       0.30764865      -0.00000000
3
Properties=species:S:1:pos:R:3:mulliken:R:1:forces:R:3 smiles=O connectivity="_JSON [[0, 1, 1.0], [0, 2, 1.0]]" spin=0 method=GFN2-xTB frame_kind=conformer energy=-137.93856700681891 pbc="F F F"
O       -0.00081616       0.36637843      -0.00000000      -0.56418875       0.05430192      -0.58021989       0.00000000
H       -0.81231620      -0.18348211      -0.00000000       0.28213033       1.03815596       0.27257125      -0.00000000
H        0.81313236      -0.18289632       0.00000000       0.28205843      -1.09245789       0.30764865      -0.00000000
3
Properties=species:S:1:pos:R:3:mulliken:R:1:forces:R:3 smiles=O connectivity="_JSON [[0, 1, 1.0], [0, 2, 1.0]]" spin=0 method=GFN2-xTB frame_kind=conformer energy=-137.93856700681891 pbc="F F F"
O       -0.00081616       0.36637843      -0.00000000      -0.56418875       0.05430192      -0.58021989       0.00000000
H       -0.81231620      -0.18348211      -0.00000000       0.28213033       1.03815596       0.27257125      -0.00000000
H        0.81313236      -0.18289632       0.00000000       0.28205843      -1.09245789       0.30764865      -0.00000000
3
Properties=species:S:1:pos:R:3:mulliken:R:1:forces:R:3 smiles=O connectivity="_JSON [[0, 1, 1.0], [0, 2, 1.0]]" spin=0 method=GFN2-xTB frame_kind=conformer energy=-137.93856700681891 pbc="F F F"
O       -0.00081616       0.36637843      -0.00000000      -0.56418875       0.05430192      -0.58021989       0.00000000
H       -0.81231620      -0.18348211      -0.00000000       0.28213033       1.03815596       0.27257125      -0.00000000
H        0.81313236      -0.18289632       0.00000000       0.28205843      -1.09245789       0.30764865      -0.00000000
3
Properties=species:S:1:pos:R:3:mulliken:R:1:forces:R:3 smiles=O connectivity="_JSON [[0, 1, 1.0], [0, 2, 1.0]]" spin=0 method=GFN2-xTB frame_kind=conformer energy=-137.93856700681891 pbc="F F F"
O       -0.00081616       0.36637843      -0.00000000      -0.56418875       0.05430192      -0.58021989       0.00000000
H       -0.81231620      -0.18348211      -0.00000000       0.28213033       1.03815596       0.27257125      -0.00000000
H        0.81313236      -0.18289632       0.00000000       0.28205843      -1.09245789       0.30764865      -0.00000000
3
Properties=species:S:1:pos:R:3:mulliken:R:1:forces:R:3 smiles=O connectivity="_JSON [[0, 1, 1.0], [0, 2, 1.0]]" spin=0 method=GFN2-xTB frame_kind=conformer energy=-137.93856700681891 pbc="F F F"
O       -0.00081616       0.36637843      -0.00000000      -0.56418875       0.05430192      -0.58021989       0.00000000
H       -0.81231620      -0.18348211      -0.00000000       0.28213033       1.03815596       0.27257125      -0.00000000
H        0.81313236      -0.18289632       0.00000000       0.28205843      -1.09245789       0.30764865      -0.00000000
3
Properties=species:S:1:pos:R:3:mulliken:R:1:forces:R:3 smiles=O connectivity="_JSON [[0, 1, 1.0], [0, 2, 1.0]]" spin=0 method=GFN2-xTB frame_kind=conformer energy=-137.93856700681891 pbc="F F F"
O       -0.00081616       0.36637843      -0.00000000      -0.56418875       0.05430192      -0.58021989       0.00000000
H       -0.81231620      -0.18348211      -0.00000000       0.28213033       1.03815596       0.27257125      -0.00000000
H        0.81313236      -0.18289632       0.00000000       0.28205843      -1.09245789       0.30764865      -0.00000000
3
Properties=species:S:1:pos:R:3:mulliken:R:1:forces:R:3 smiles=O connectivity="_JSON [[0, 1, 1.0], [0, 2, 1.0]]" spin=0 method=GFN2-xTB frame_kind=conformer energy=-137.93856700681891 pbc="F F F"
O       -0.00081616       0.36637843      -0.00000000      -0.56418875       0.05430192      -0.58021989       0.00000000
H       -0.81231620      -0.18348211      -0.00000000       0.28213033       1.03815596       0.27257125      -0.00000000
H        0.81313236      -0.18289632       0.00000000       0.28205843      -1.09245789       0.30764865      -0.00000000
3
Properties=species:S:1:pos:R:3:mulliken:R:1:forces:R:3 smiles=O connectivity="_JSON [[0, 1, 1.0], [0, 2, 1.0]]" spin=0 method=GFN2-xTB frame_kind=conformer energy=-137.93856700681891 pbc="F F F"
O       -0.00081616       0.36637843      -0.00000000      -0.56418875       0.05430192      -0.58021989       0.00000000
H       -0.81231620      -0.18348211      -0.00000000       0.28213033       1.03815596       0.27257125      -0.00000000
H        0.81313236      -0.18289632       0.00000000       0.28205843      -1.09245789       0.30764865      -0.00000000
3
Properties=species:S:1:pos:R:3:mulliken:R:1:forces:R:3 smiles=O connectivity="_JSON [[0, 1, 1.0], [0, 2, 1.0]]" spin=0 method=GFN2-xTB frame_kind=conformer energy=-137.93856700681891 pbc="F F F"
O       -0.00081616       0.36637843      -0.00000000      -0.56418875       0.05430192      -0.58021989       0.00000000
H       -0.81231620      -0.18348211      -0.00000000       0.28213033       1.03815596       0.27257125      -0.00000000
H        0.81313236      -0.18289632       0.00000000       0.28205843      -1.09245789       0.30764865      -0.00000000
3
Properties=species:S:1:pos:R:3:mulliken:R:1:forces:R:3 smiles=O connectivity="_JSON [[0, 1, 1.0], [0, 2, 1.0]]" spin=0 method=GFN2-xTB frame_kind=conformer energy=-137.93856700681891 pbc="F F F"
O       -0.00081616       0.36637843      -0.00000000      -0.56418875       0.05430192      -0.58021989       0.00000000
H       -0.81231620      -0.18348211      -0.00000000       0.28213033       1.03815596       0.27257125      -0.00000000
H        0.81313236      -0.18289632       0.00000000       0.28205843      -1.09245789       0.30764865      -0.00000000
3
Properties=species:S:1:pos:R:3:mulliken:R:1:forces:R:3 smiles=O connectivity="_JSON [[0, 1, 1.0], [0, 2, 1.0]]" spin=0 method=GFN2-xTB frame_kind=conformer energy=-137.93856700681891 pbc="F F F"
O       -0.00081616       0.36637843      -0.00000000      -0.56418875       0.05430192      -0.58021989       0.00000000
H       -0.81231620      -0.18348211      -0.00000000       0.28213033       1.03815596       0.27257125      -0.00000000
H        0.81313236      -0.18289632       0.00000000       0.28205843      -1.09245789       0.30764865      -0.00000000
3
Properties=species:S:1:pos:R:3:mulliken:R:1:forces:R:3 smiles=O connectivity="_JSON [[0, 1, 1.0], [0, 2, 1.0]]" spin=0 method=GFN2-xTB frame_kind=conformer energy=-137.93856700681891 pbc="F F F"
O       -0.00081616       0.36637843      -0.00000000      -0.56418875       0.05430192      -0.58021989       0.00000000
H       -0.81231620      -0.18348211      -0.00000000       0.28213033       1.03815596       0.27257125      -0.00000000
H        0.81313236      -0.18289632       0.00000000       0.28205843      -1.09245789       0.30764865      -0.00000000
3
Properties=species:S:1:pos:R:3:mulliken:R:1:forces:R:3 smiles=O connectivity="_JSON [[0, 1, 1.0], [0, 2, 1.0]]" spin=0 method=GFN2-xTB frame_kind=conformer energy=-137.93856700681891 pbc="F F F"
O       -0.00081616       0.36637843      -0.00000000      -0.56418875       0.05430192      -0.58021989       0.00000000
H       -0.81231620      -0.18348211      -0.00000000       0.28213033       1.03815596       0.27257125      -0.00000000
H        0.81313236      -0.18289632       0.00000000       0.28205843      -1.09245789       0.30764865      -0.00000000
3
Properties=species:S:1:pos:R:3:mulliken:R:1:forces:R:3 smiles=O connectivity="_JSON [[0, 1, 1.0], [0, 2, 1.0]]" spin=0 method=GFN2-xTB frame_kind=conformer energy=-137.93856700681891 pbc="F F F"
O       -0.00081616       0.36637843      -0.00000000      -0.56418875       0.05430192      -0.58021989       0.00000000
H       -0.81231620      -0.18348211      -0.00000000       0.28213033       1.03815596       0.27257125      -0.00000000
H        0.81313236      -0.18289632       0.00000000       0.28205843      -1.09245789       0.30764865      -0.00000000
3
Properties=species:S:1:pos:R:3:mulliken:R:1:forces:R:3 smiles=O connectivity="_JSON [[0, 1, 1.0], [0, 2, 1.0]]" spin=0 method=GFN2-xTB frame_kind=conformer energy=-137.93856700681891 pbc="F F F"
O       -0.00081616       0.36637843      -0.00000000      -0.56418875       0.05430192      -0.58021989       0.00000000
H       -0.81231620      -0.18348211      -0.00000000       0.28213033       1.03815596       0.27257125      -0.00000000
H        0.81313236      -0.18289632       0.00000000       0.28205843      -1.09245789       0.30764865      -0.00000000
3
Properties=species:S:1:pos:R:3:mulliken:R:1:forces:R:3 smiles=O connectivity="_JSON [[0, 1, 1.0], [0, 2, 1.0]]" spin=0 method=GFN2-xTB frame_kind=conformer energy=-137.93856700681891 pbc="F F F"
O       -0.00081616       0.36637843      -0.00000000      -0.56418875       0.05430192      -0.58021989       0.00000000
H       -0.81231620      -0.18348211      -0.00000000       0.28213033       1.03815596       0.27257125      -0.00000000
H        0.81313236      -0.18289632       0.00000000       0.28205843      -1.09245789       0.30764865      -0.00000000
3
Properties=species:S:1:pos:R:3:mulliken:R:1:forces:R:3 smiles=O connectivity="_JSON [[0, 1, 1.0], [0, 2, 1.0]]" spin=0 method=GFN2-xTB frame_kind=conformer energy=-137.93856700681891 pbc="F F F"
O       -0.00081616       0.36637843      -0.00000000      -0.56418875       0.05430192      -0.58021989       0.00000000
H       -0.81231620      -0.18348211      -0.00000000       0.28213033       1.03815596       0.27257125      -0.00000000
H        0.81313236      -0.18289632       0.00000000       0.28205843      -1.09245789       0.30764865      -0.00000000
3
Properties=species:S:1:pos:R:3:mulliken:R:1:forces:R:3 smiles=O connectivity="_JSON [[0, 1, 1.0], [0, 2, 1.0]]" spin=0 method=GFN2-xTB frame_kind=conformer energy=-137.93856700681891 pbc="F F F"
O       -0.00081616       0.36637843      -0.00000000      -0.56418875       0.05430192      -0.58021989       0.00000000
H       -0.81231620      -0.18348211      -0.00000000       0.28213033       1.03815596       0.27257125      -0.00000000
H        0.81313236      -0.18289632       0.00000000       0.28205843      -1.09245789       0.30764865      -0.00000000
