3
Properties=species:S:1:pos:R:3:mulliken:R:1:forces:R:3 smiles="[O]O" connectivity="_JSON [[0, 1, 1.0], [1, 2, 1.0]]" spin=1 method=GFN2-xTB frame_kind=equilibrium charge=0 fit_config="{\"temperature\": 500.0, \"n_mode_frames\": 40, \"n_conformers\": 20, \"torsion_step_deg\": 15.0, \"hessian_delta\": 0.01, \"fmax\": 0.001, \"energy_weight\": null, \"regularization\": 0.001, \"seed\": 0, \"bond_form\": \"morse\", \"electrostatics\": \"fixed\", \"n_cycles\": 200, \"cycle_tol\": 0.0001}" energy=-230.19821055484115 pbc="F F F"
O        1.00715916      -0.16430703      -0.00000000      -0.21592800       0.00021505      -0.00004913      -0.00000000
O       -0.15299790       0.42720044       0.00000000      -0.12119949      -0.00020272      -0.00006082       0.00000000
H       -0.85416126      -0.26289340      -0.00000000       0.33712749      -0.00001233       0.00010996      -0.00000000
3
Properties=species:S:1:pos:R:3:mulliken:R:1:forces:R:3 smiles="[O]O" connectivity="_JSON [[0, 1, 1.0], [1, 2, 1.0]]" spin=1 method=GFN2-xTB frame_kind=hessian hessian_column=0 hessian_sign=1 hessian_delta=0.01 energy=-230.19608381042983 pbc="F F F"
O        1.01715916      -0.16430703      -0.00000000      -0.21423937      -0.42192685       0.17409007      -0.00000000
O       -0.15299790       0.42720044       0.00000000      -0.12360859       0.36343324      -0.16627290       0.00000000
H       -0.85416126      -0.26289340      -0.00000000       0.33784796       0.05849361      -0.00781717      -0.00000000
3
Properties=species:S:1:pos:R:3:mulliken:R:1:forces:R:3 smiles="[O]O" connectivity="_JSON [[0, 1, 1.0], [1, 2, 1.0]]" spin=1 method=GFN2-xTB frame_kind=hessian hessian_column=0 hessian_sign=-1 hessian_delta=0.01 energy=-230.19601316057475 pbc="F F F"
O        0.99715916      -0.16430703      -0.00000000      -0.21760712       0.44300638      -0.18606391       0.00000000
O       -0.15299790       0.42720044       0.00000000      -0.11875685      -0.38191525       0.17765249      -0.00000000
H       -0.85416126      -0.26289340      -0.00000000       0.33636396      -0.06109113       0.00841142       0.00000000
3
Properties=species:S:1:pos:R:3:mulliken:R:1:forces:R:3 smiles="[O]O" connectivity="_JSON [[0, 1, 1.0], [1, 2, 1.0]]" spin=1 method=GFN2-xTB frame_kind=hessian hessian_column=1 hessian_sign=1 hessian_delta=0.01 energy=-230.19765199698728 pbc="F F F"
O        1.00715916      -0.15430703      -0.00000000      -0.21622300       0.18192653      -0.11163651       0.00000000
O       -0.15299790       0.42720044       0.00000000      -0.11992402      -0.18517356       0.14225299      -0.00000000
H       -0.85416126      -0.26289340      -0.00000000       0.33614702       0.00324702      -0.03061648      -0.00000000
3
Properties=species:S:1:pos:R:3:mulliken:R:1:forces:R:3 smiles="[O]O" connectivity="_JSON [[0, 1, 1.0], [1, 2, 1.0]]" spin=1 method=GFN2-xTB frame_kind=hessian hessian_column=1 hessian_sign=-1 hessian_delta=0.01 energy=-230.19764995396136 pbc="F F F"
O        1.00715916      -0.17430703      -0.00000000      -0.21561296      -0.17797619       0.11216825       0.00000000
O       -0.15299790       0.42720044       0.00000000      -0.12248337       0.18086074      -0.14226478      -0.00000000
H       -0.85416126      -0.26289340      -0.00000000       0.33809633      -0.00288455       0.03009653       0.00000000
3
Properties=species:S:1:pos:R:3:mulliken:R:1:forces:R:3 smiles="[O]O" connectivity="_JSON [[0, 1, 1.0], [1, 2, 1.0]]" spin=1 method=GFN2-xTB frame_kind=hessian hessian_column=2 hessian_sign=1 hessian_delta=0.01 energy=-230.1982105207113 pbc="F F F"
O        1.00715916      -0.16430703       0.01000000      -0.21592234      -0.00153121       0.00078453      -0.00001322
O       -0.15299790       0.42720044       0.00000000      -0.12121007       0.00138269      -0.00095902       0.00001338
H       -0.85416126      -0.26289340      -0.00000000       0.33713241       0.00014852       0.00017449      -0.00000016
3
Properties=species:S:1:pos:R:3:mulliken:R:1:forces:R:3 smiles="[O]O" connectivity="_JSON [[0, 1, 1.0], [1, 2, 1.0]]" spin=1 method=GFN2-xTB frame_kind=hessian hessian_column=2 hessian_sign=-1 hessian_delta=0.01 energy=-230.1982105207113 pbc="F F F"
O        1.00715916      -0.16430703      -0.01000000      -0.21592234      -0.00153121       0.00078453       0.00001322
O       -0.15299790       0.42720044       0.00000000      -0.12121007       0.00138269      -0.00095902      -0.00001338
H       -0.85416126      -0.26289340      -0.00000000       0.33713241       0.00014852       0.00017449       0.00000016
3
Properties=species:S:1:pos:R:3:mulliken:R:1:forces:R:3 smiles="[O]O" connectivity="_JSON [[0, 1, 1.0], [1, 2, 1.0]]" spin=1 method=GFN2-xTB frame_kind=hessian hessian_column=3 hessian_sign=1 hessian_delta=0.01 energy=-230.19557711464762 pbc="F F F"
O        1.00715916      -0.16430703      -0.00000000      -0.21734130       0.38086327      -0.18825559       0.00000000
O       -0.14299790       0.42720044       0.00000000      -0.11816145      -0.52770918       0.03341713      -0.00000000
H       -0.85416126      -0.26289340      -0.00000000       0.33550275       0.14684591       0.15483846       0.00000000
3
Properties=species:S:1:pos:R:3:mulliken:R:1:forces:R:3 smiles="[O]O" connectivity="_JSON [[0, 1, 1.0], [1, 2, 1.0]]" spin=1 method=GFN2-xTB frame_kind=hessian hessian_column=3 hessian_sign=-1 hessian_delta=0.01 energy=-230.19559887670385 pbc="F F F"
O        1.00715916      -0.16430703      -0.00000000      -0.21444580      -0.36441736       0.17797047       0.00000000
O       -0.16299790       0.42720044       0.00000000      -0.12416308       0.52135355      -0.01073012      -0.00000000
H       -0.85416126      -0.26289340      -0.00000000       0.33860888      -0.15693619      -0.16724035       0.00000000
3
Properties=species:S:1:pos:R:3:mulliken:R:1:forces:R:3 smiles="[O]O" connectivity="_JSON [[0, 1, 1.0], [1, 2, 1.0]]" spin=1 method=GFN2-xTB frame_kind=hessian hessian_column=4 hessian_sign=1 hessian_delta=0.01 energy=-230.1963234902666 pbc="F F F"
O        1.00715916      -0.16430703      -0.00000000      -0.21631035      -0.16882051       0.14176862       0.00000000
O       -0.15299790       0.43720044       0.00000000      -0.12200369       0.02425563      -0.37588135      -0.00000000
H       -0.85416126      -0.26289340      -0.00000000       0.33831404       0.14456488       0.23411273      -0.00000000
3
Properties=species:S:1:pos:R:3:mulliken:R:1:forces:R:3 smiles="[O]O" connectivity="_JSON [[0, 1, 1.0], [1, 2, 1.0]]" spin=1 method=GFN2-xTB frame_kind=hessian hessian_column=4 hessian_sign=-1 hessian_delta=0.01 energy=-230.19629642466845 pbc="F F F"
O        1.00715916      -0.16430703      -0.00000000      -0.21555130       0.17489185      -0.14272946      -0.00000000
O       -0.15299790       0.41720044       0.00000000      -0.12043216      -0.01972411       0.38432888       0.00000000
H       -0.85416126      -0.26289340      -0.00000000       0.33598345      -0.15516773      -0.24159942      -0.00000000
3
Properties=species:S:1:pos:R:3:mulliken:R:1:forces:R:3 smiles="[O]O" connectivity="_JSON [[0, 1, 1.0], [1, 2, 1.0]]" spin=1 method=GFN2-xTB frame_kind=hessian hessian_column=5 hessian_sign=1 hessian_delta=0.01 energy=-230.19821043694031 pbc="F F F"
O        1.00715916      -0.16430703      -0.00000000      -0.21593032      -0.00125165       0.00111433       0.00001808
O       -0.15299790       0.42720044       0.01000000      -0.12120673       0.00017902      -0.00297988      -0.00004578
H       -0.85416126      -0.26289340      -0.00000000       0.33713705       0.00107264       0.00186555       0.00002770
3
Properties=species:S:1:pos:R:3:mulliken:R:1:forces:R:3 smiles="[O]O" connectivity="_JSON [[0, 1, 1.0], [1, 2, 1.0]]" spin=1 method=GFN2-xTB frame_kind=hessian hessian_column=5 hessian_sign=-1 hessian_delta=0.01 energy=-230.19821043694017 pbc="F F F"
O        1.00715916      -0.16430703      -0.00000000      -0.21593032      -0.00125165       0.00111433      -0.00001808
O       -0.15299790       0.42720044      -0.01000000      -0.12120673       0.00017902      -0.00297988       0.00004578
H       -0.85416126      -0.26289340      -0.00000000       0.33713705       0.00107264       0.00186555      -0.00002770
3
Properties=species:S:1:pos:R:3:mulliken:R:1:forces:R:3 smiles="[O]O" connectivity="_JSON [[0, 1, 1.0], [1, 2, 1.0]]" spin=1 method=GFN2-xTB frame_kind=hessian hessian_column=6 hessian_sign=1 hessian_delta=0.01 energy=-230.19713799873307 pbc="F F F"
O        1.00715916      -0.16430703      -0.00000000      -0.21616209       0.06025206       0.00320139       0.00000000
O       -0.15299790       0.42720044       0.00000000      -0.12177479       0.15570981       0.15546641      -0.00000000
H       -0.84416126      -0.26289340      -0.00000000       0.33793688      -0.21596187      -0.15866780       0.00000000
3
Properties=species:S:1:pos:R:3:mulliken:R:1:forces:R:3 smiles="[O]O" connectivity="_JSON [[0, 1, 1.0], [1, 2, 1.0]]" spin=1 method=GFN2-xTB frame_kind=hessian hessian_column=6 hessian_sign=-1 hessian_delta=0.01 energy=-230.1971662837698 pbc="F F F"
O        1.00715916      -0.16430703      -0.00000000      -0.21569199      -0.05930935      -0.00291917       0.00000000
O       -0.15299790       0.42720044       0.00000000      -0.12062555      -0.14811018      -0.14428502      -0.00000000
H       -0.86416126      -0.26289340      -0.00000000       0.33631754       0.20741953       0.14720419       0.00000000
3
Properties=species:S:1:pos:R:3:mulliken:R:1:forces:R:3 smiles="[O]O" connectivity="_JSON [[0, 1, 1.0], [1, 2, 1.0]]" spin=1 method=GFN2-xTB frame_kind=hessian hessian_column=7 hessian_sign=1 hessian_delta=0.01 energy=-230.19716226520978 pbc="F F F"
O        1.00715916      -0.16430703      -0.00000000      -0.21524203      -0.00786209      -0.03041009       0.00000000
O       -0.15299790       0.42720044       0.00000000      -0.12169471       0.16656629       0.24127399      -0.00000000
H       -0.85416126      -0.25289340      -0.00000000       0.33693674      -0.15870420      -0.21086390      -0.00000000
3
Properties=species:S:1:pos:R:3:mulliken:R:1:forces:R:3 smiles="[O]O" connectivity="_JSON [[0, 1, 1.0], [1, 2, 1.0]]" spin=1 method=GFN2-xTB frame_kind=hessian hessian_column=7 hessian_sign=-1 hessian_delta=0.01 energy=-230.19718384464372 pbc="F F F"
O        1.00715916      -0.16430703      -0.00000000      -0.21661102       0.00836814       0.03029890       0.00000000
O       -0.15299790       0.42720044       0.00000000      -0.12070688      -0.15551998      -0.23444186       0.00000000
H       -0.85416126      -0.27289340      -0.00000000       0.33731790       0.14715184       0.20414297      -0.00000000
3
Properties=species:S:1:pos:R:3:mulliken:R:1:forces:R:3 smiles="[O]O" connectivity="_JSON [[0, 1, 1.0], [1, 2, 1.0]]" spin=1 method=GFN2-xTB frame_kind=hessian hessian_column=8 hessian_sign=1 hessian_delta=0.01 energy=-230.19821050334278 pbc="F F F"
O        1.00715916      -0.16430703      -0.00000000      -0.21593070       0.00010833       0.00008828      -0.00000137
O       -0.15299790       0.42720044       0.00000000      -0.12119574      -0.00134021      -0.00156016       0.00002142
H       -0.85416126      -0.26289340       0.01000000       0.33712643       0.00123188       0.00147188      -0.00002005
3
Properties=species:S:1:pos:R:3:mulliken:R:1:forces:R:3 smiles="[O]O" connectivity="_JSON [[0, 1, 1.0], [1, 2, 1.0]]" spin=1 method=GFN2-xTB frame_kind=hessian hessian_column=8 hessian_sign=-1 hessian_delta=0.01 energy=-230.1982105033425 pbc="F F F"
O        1.00715916      -0.16430703      -0.00000000      -0.21593070       0.00010833       0.00008828       0.00000137
O       -0.15299790       0.42720044       0.00000000      -0.12119574      -0.00134021      -0.00156016      -0.00002142
H       -0.85416126      -0.26289340      -0.01000000       0.33712643       0.00123188       0.00147188       0.00002005
3
Properties=species:S:1:pos:R:3:mulliken:R:1:forces:R:3 smiles="[O]O" connectivity="_JSON [[0, 1, 1.0], [1, 2, 1.0]]" spin=1 method=GFN2-xTB frame_kind=mode energy=-230.18813018276427 pbc="F F F"
O        1.00708703      -0.16498242      -0.00000000      -0.21587339       0.07372174       0.03009587      -0.00000000
O       -0.15448319       0.42751959       0.00000000      -0.12341944       0.60322299       0.54015060       0.00000000
H       -0.82944097      -0.25724000      -0.00000000       0.33929283      -0.67694473      -0.57024647      -0.00000000
3
Properties=species:S:1:pos:R:3:mulliken:R:1:forces:R:3 smiles="[O]O" connectivity="_JSON [[0, 1, 1.0], [1, 2, 1.0]]" spin=1 method=GFN2-xTB frame_kind=mode energy=-230.18902809239876 pbc="F F F"
O        1.00319503      -0.16442524      -0.00000000      -0.21913693       0.46613422      -0.01475509       0.00000000
O       -0.15145222       0.42847334       0.00000000      -0.12134789       0.04310773       0.16838106      -0.00000000
H       -0.81577782      -0.28122348      -0.00000000       0.34048482      -0.50924195      -0.15362597       0.00000000
3
Properties=species:S:1:pos:R:3:mulliken:R:1:forces:R:3 smiles="[O]O" connectivity="_JSON [[0, 1, 1.0], [1, 2, 1.0]]" spin=1 method=GFN2-xTB frame_kind=mode energy=-230.13707061385247 pbc="F F F"
O        1.02913193      -0.17463709      -0.00000000      -0.20922622      -1.95916699       0.90833717       0.00000000
O       -0.17307013       0.43795749       0.00000000      -0.13211645       1.29529582      -1.41675242      -0.00000000
H       -0.88430704      -0.26966550      -0.00000000       0.34134266       0.66387118       0.50841524       0.00000000
3
Properties=species:S:1:pos:R:3:mulliken:R:1:forces:R:3 smiles="[O]O" connectivity="_JSON [[0, 1, 1.0], [1, 2, 1.0]]" spin=1 method=GFN2-xTB frame_kind=mode energy=-230.1517375650428 pbc="F F F"
O        0.98868464      -0.15467490      -0.00000000      -0.22092675       2.05973978      -1.05533473      -0.00000000
O       -0.13449052       0.41725023       0.00000000      -0.10875858      -2.00724647       1.11465697       0.00000000
H       -0.85470031      -0.25784833       0.00000000       0.32968533      -0.05249330      -0.05932223      -0.00000000
3
Properties=species:S:1:pos:R:3:mulliken:R:1:forces:R:3 smiles="[O]O" connectivity="_JSON [[0, 1, 1.0], [1, 2, 1.0]]" spin=1 method=GFN2-xTB frame_kind=mode energy=-230.03713969570657 pbc="F F F"
O        0.98201422      -0.14776338      -0.00000000      -0.21839296       2.82357923      -1.79409066       0.00000000
O       -0.12290563       0.40937579       0.00000000      -0.09708248      -4.03964154       1.32036486       0.00000000
H       -0.93271204      -0.24256300       0.00000000       0.31547544       1.21606231       0.47372580      -0.00000000
3
Properties=species:S:1:pos:R:3:mulliken:R:1:forces:R:3 smiles="[O]O" connectivity="_JSON [[0, 1, 1.0], [1, 2, 1.0]]" spin=1 method=GFN2-xTB frame_kind=mode energy=-230.1774077928826 pbc="F F F"
O        0.99483059      -0.15856988      -0.00000000      -0.22045699       1.28668964      -0.58201453      -0.00000000
O       -0.14074978       0.42229141       0.00000000      -0.11254877      -1.47204602       0.27880988       0.00000000
H       -0.85289576      -0.27604039       0.00000000       0.33300576       0.18535638       0.30320465      -0.00000000
3
Properties=species:S:1:pos:R:3:mulliken:R:1:forces:R:3 smiles="[O]O" connectivity="_JSON [[0, 1, 1.0], [1, 2, 1.0]]" spin=1 method=GFN2-xTB frame_kind=mode energy=-230.1720373719457 pbc="F F F"
O        1.02095474      -0.16836873      -0.00000000      -0.20883064      -1.29788857       0.37102456       0.00000000
O       -0.16393728       0.42916178       0.00000000      -0.12768292       0.90150069      -0.26934343      -0.00000000
H       -0.89948396      -0.22955111      -0.00000000       0.33651357       0.39638788      -0.10168113       0.00000000
3
Properties=species:S:1:pos:R:3:mulliken:R:1:forces:R:3 smiles="[O]O" connectivity="_JSON [[0, 1, 1.0], [1, 2, 1.0]]" spin=1 method=GFN2-xTB frame_kind=mode energy=-230.1489474353892 pbc="F F F"
O        1.01466382      -0.17320561      -0.00000000      -0.21897593      -0.54047518       0.77215520       0.00000000
O       -0.16541368       0.43964564       0.00000000      -0.13109287       1.16286140      -0.94847648       0.00000000
H       -0.77620173      -0.31918874      -0.00000000       0.35006880      -0.62238621       0.17632128      -0.00000000
3
Properties=species:S:1:pos:R:3:mulliken:R:1:forces:R:3 smiles="[O]O" connectivity="_JSON [[0, 1, 1.0], [1, 2, 1.0]]" spin=1 method=GFN2-xTB frame_kind=mode energy=-230.16944586618854 pbc="F F F"
O        1.01722928      -0.17087880      -0.00000000      -0.21546139      -0.96403911       0.62867106      -0.00000000
O       -0.16318994       0.43602670       0.00000000      -0.12650592       0.47808495      -1.37473645      -0.00000000
H       -0.85221649      -0.29867628      -0.00000000       0.34196731       0.48595416       0.74606540       0.00000000
3
Properties=species:S:1:pos:R:3:mulliken:R:1:forces:R:3 smiles="[O]O" connectivity="_JSON [[0, 1, 1.0], [1, 2, 1.0]]" spin=1 method=GFN2-xTB frame_kind=mode energy=-230.1729463389041 pbc="F F F"
O        0.99363443      -0.15726632      -0.00000000      -0.21950988       1.47953970      -0.75919127       0.00000000
O       -0.13973557       0.41966264       0.00000000      -0.11278793      -1.27259347       0.96538625      -0.00000000
H       -0.85000899      -0.25500615       0.00000000       0.33229781      -0.20694623      -0.20619499       0.00000000
3
Properties=species:S:1:pos:R:3:mulliken:R:1:forces:R:3 smiles="[O]O" connectivity="_JSON [[0, 1, 1.0], [1, 2, 1.0]]" spin=1 method=GFN2-xTB frame_kind=mode energy=-230.17345582089754 pbc="F F F"
O        0.99511731      -0.15695714      -0.00000000      -0.21821693       1.26692070      -0.75980537       0.00000000
O       -0.13972588       0.41906237       0.00000000      -0.11190100      -1.50214404       0.72574140      -0.00000000
H       -0.87369862      -0.25038479       0.00000000       0.33011793       0.23522334       0.03406398      -0.00000000
3
Properties=species:S:1:pos:R:3:mulliken:R:1:forces:R:3 smiles="[O]O" connectivity="_JSON [[0, 1, 1.0], [1, 2, 1.0]]" spin=1 method=GFN2-xTB frame_kind=mode energy=-230.18826887863085 pbc="F F F"
O        1.01451121      -0.16832689      -0.00000000      -0.21339351      -0.65916044       0.35394839      -0.00000000
O       -0.16106870       0.43096077       0.00000000      -0.12693054       1.00710543      -0.03281116       0.00000000
H       -0.84274594      -0.25877301      -0.00000000       0.34032405      -0.34794499      -0.32113722      -0.00000000
3
Properties=species:S:1:pos:R:3:mulliken:R:1:forces:R:3 smiles="[O]O" connectivity="_JSON [[0, 1, 1.0], [1, 2, 1.0]]" spin=1 method=GFN2-xTB frame_kind=mode energy=-230.1744843721529 pbc="F F F"
O        0.99925884      -0.15945726      -0.00000000      -0.21649810       0.89349662      -0.54199484      -0.00000000
O       -0.14556227       0.42053598       0.00000000      -0.11770699      -0.18926436       1.34523661       0.00000000
H       -0.84679286      -0.23409145       0.00000000       0.33420509      -0.70423226      -0.80324177       0.00000000
3
Properties=species:S:1:pos:R:3:mulliken:R:1:forces:R:3 smiles="[O]O" connectivity="_JSON [[0, 1, 1.0], [1, 2, 1.0]]" spin=1 method=GFN2-xTB frame_kind=mode energy=-230.07869746236932 pbc="F F F"
O        1.01024209      -0.17332939      -0.00000000      -0.22179226       0.05861167       0.73105342       0.00000000
O       -0.16478981       0.43996111       0.00000000      -0.13419870       1.76080734       0.16125986       0.00000000
H       -0.71592380      -0.32223415      -0.00000000       0.35599096      -1.81941902      -0.89231329      -0.00000000
3
Properties=species:S:1:pos:R:3:mulliken:R:1:forces:R:3 smiles="[O]O" connectivity="_JSON [[0, 1, 1.0], [1, 2, 1.0]]" spin=1 method=GFN2-xTB frame_kind=mode energy=-230.14850555908677 pbc="F F F"
O        1.02784899      -0.17464721      -0.00000000      -0.20865740      -1.78093838       0.87124865      -0.00000000
O       -0.17378693       0.43709691       0.00000000      -0.13418017       2.00450004      -0.58034962       0.00000000
H       -0.85256730      -0.25584655      -0.00000000       0.34283757      -0.22356166      -0.29089903      -0.00000000
3
Properties=species:S:1:pos:R:3:mulliken:R:1:forces:R:3 smiles="[O]O" connectivity="_JSON [[0, 1, 1.0], [1, 2, 1.0]]" spin=1 method=GFN2-xTB frame_kind=mode energy=-230.06952830852003 pbc="F F F"
O        1.01714576      -0.16346462      -0.00000000      -0.20412591      -0.79854254      -0.18960587       0.00000000
O       -0.16060393       0.41889544       0.00000000      -0.12992579       2.52970347       2.46430677      -0.00000000
H       -0.89193833      -0.14443959       0.00000000       0.33405170      -1.73116093      -2.27470090       0.00000000
3
Properties=species:S:1:pos:R:3:mulliken:R:1:forces:R:3 smiles="[O]O" connectivity="_JSON [[0, 1, 1.0], [1, 2, 1.0]]" spin=1 method=GFN2-xTB frame_kind=mode energy=-230.09956861732547 pbc="F F F"
O        1.03734422      -0.17844202      -0.00000000      -0.20423594      -2.47814818       1.12779084      -0.00000000
O       -0.18245479       0.43997650       0.00000000      -0.13910360       2.73167223      -0.64543238       0.00000000
H       -0.86569100      -0.24131743      -0.00000000       0.34333954      -0.25352405      -0.48235846      -0.00000000
3
Properties=species:S:1:pos:R:3:mulliken:R:1:forces:R:3 smiles="[O]O" connectivity="_JSON [[0, 1, 1.0], [1, 2, 1.0]]" spin=1 method=GFN2-xTB frame_kind=mode energy=-230.15632510234255 pbc="F F F"
O        0.99487217      -0.15568681      -0.00000000      -0.21631446       1.38767948      -0.95229578       0.00000000
O       -0.13967019       0.41571310       0.00000000      -0.11343526      -0.98527101       1.69405908      -0.00000000
H       -0.87069204      -0.21738678       0.00000000       0.32974972      -0.40240847      -0.74176330       0.00000000
3
Properties=species:S:1:pos:R:3:mulliken:R:1:forces:R:3 smiles="[O]O" connectivity="_JSON [[0, 1, 1.0], [1, 2, 1.0]]" spin=1 method=GFN2-xTB frame_kind=mode energy=-230.15471614289828 pbc="F F F"
O        0.99780357      -0.15558126      -0.00000000      -0.21405643       1.04187858      -0.93646439      -0.00000000
O       -0.14085683       0.41468077       0.00000000      -0.11389180      -1.06154088       1.54372072       0.00000000
H       -0.89838331      -0.20267484       0.00000000       0.32794823       0.01966230      -0.60725633      -0.00000000
3
Properties=species:S:1:pos:R:3:mulliken:R:1:forces:R:3 smiles="[O]O" connectivity="_JSON [[0, 1, 1.0], [1, 2, 1.0]]" spin=1 method=GFN2-xTB frame_kind=mode energy=-230.14387547560577 pbc="F F F"
O        1.00331305      -0.16800911      -0.00000000      -0.22486584       0.45280819       0.36231264       0.00000000
O       -0.15315866       0.43631604       0.00000000      -0.12207160      -0.50763404      -1.51654407      -0.00000000
H       -0.79056515      -0.34882295      -0.00000000       0.34693744       0.05482585       1.15423143       0.00000000
3
Properties=species:S:1:pos:R:3:mulliken:R:1:forces:R:3 smiles="[O]O" connectivity="_JSON [[0, 1, 1.0], [1, 2, 1.0]]" spin=1 method=GFN2-xTB frame_kind=mode energy=-230.0891771464451 pbc="F F F"
O        0.99165400      -0.15975612      -0.00000000      -0.22265504       1.90447014      -0.59424637       0.00000000
O       -0.14304183       0.42273131       0.00000000      -0.11882759       0.26537564       2.28827038      -0.00000000
H       -0.76609738      -0.26419759       0.00000000       0.34148263      -2.16984578      -1.69402401       0.00000000
3
Properties=species:S:1:pos:R:3:mulliken:R:1:forces:R:3 smiles="[O]O" connectivity="_JSON [[0, 1, 1.0], [1, 2, 1.0]]" spin=1 method=GFN2-xTB frame_kind=mode energy=-230.18889269361424 pbc="F F F"
O        1.00526837      -0.16118733      -0.00000000      -0.21449388       0.15266020      -0.28996045      -0.00000000
O       -0.14885413       0.42273658       0.00000000      -0.11783774      -0.58170445       0.23663059       0.00000000
H       -0.88992378      -0.24155728       0.00000000       0.33233162       0.42904425       0.05332986      -0.00000000
3
Properties=species:S:1:pos:R:3:mulliken:R:1:forces:R:3 smiles="[O]O" connectivity="_JSON [[0, 1, 1.0], [1, 2, 1.0]]" spin=1 method=GFN2-xTB frame_kind=mode energy=-230.105661153297 pbc="F F F"
O        1.03515415      -0.17687515      -0.00000000      -0.20402120      -2.31966053       1.00444925       0.00000000
O       -0.18028454       0.43764630       0.00000000      -0.13836029       2.83246271      -0.20662919      -0.00000000
H       -0.86537863      -0.22920188      -0.00000000       0.34238149      -0.51280218      -0.79782006      -0.00000000
3
Properties=species:S:1:pos:R:3:mulliken:R:1:forces:R:3 smiles="[O]O" connectivity="_JSON [[0, 1, 1.0], [1, 2, 1.0]]" spin=1 method=GFN2-xTB frame_kind=mode energy=-230.0750583617363 pbc="F F F"
O        0.98539901      -0.14870844      -0.00000000      -0.21659388       2.63112862      -1.81624113       0.00000000
O       -0.12840542       0.40694889       0.00000000      -0.10566969      -2.48463216       2.65728450      -0.00000000
H       -0.89913859      -0.18904183       0.00000000       0.32226357      -0.14649645      -0.84104336       0.00000000
3
Properties=species:S:1:pos:R:3:mulliken:R:1:forces:R:3 smiles="[O]O" connectivity="_JSON [[0, 1, 1.0], [1, 2, 1.0]]" spin=1 method=GFN2-xTB frame_kind=mode energy=-230.0904852540767 pbc="F F F"
O        1.01120320      -0.17053419      -0.00000000      -0.21665309      -0.13849401       0.48981045       0.00000000
O       -0.16332232       0.43412803       0.00000000      -0.13188206       2.36082931       1.34080725       0.00000000
H       -0.75447131      -0.27401360      -0.00000000       0.34853515      -2.22233529      -1.83061770      -0.00000000
3
Properties=species:S:1:pos:R:3:mulliken:R:1:forces:R:3 smiles="[O]O" connectivity="_JSON [[0, 1, 1.0], [1, 2, 1.0]]" spin=1 method=GFN2-xTB frame_kind=mode energy=-230.12697679901993 pbc="F F F"
O        0.98762138      -0.15414712      -0.00000000      -0.22054729       2.29354270      -1.18167813       0.00000000
O       -0.13474886       0.41544535       0.00000000      -0.11072173      -1.35426682       2.08763979      -0.00000000
H       -0.83372408      -0.23757838       0.00000000       0.33126902      -0.93927588      -0.90596166       0.00000000
3
Properties=species:S:1:pos:R:3:mulliken:R:1:forces:R:3 smiles="[O]O" connectivity="_JSON [[0, 1, 1.0], [1, 2, 1.0]]" spin=1 method=GFN2-xTB frame_kind=mode energy=-230.11791353277715 pbc="F F F"
O        1.02613552      -0.16681746      -0.00000000      -0.20314481      -1.70332823       0.19886988      -0.00000000
O       -0.16588763       0.42386211       0.00000000      -0.13022576       1.11675768       0.33712759       0.00000000
H       -0.95075461      -0.17005158       0.00000000       0.33337057       0.58657055      -0.53599747      -0.00000000
3
Properties=species:S:1:pos:R:3:mulliken:R:1:forces:R:3 smiles="[O]O" connectivity="_JSON [[0, 1, 1.0], [1, 2, 1.0]]" spin=1 method=GFN2-xTB frame_kind=mode energy=-230.1636014316772 pbc="F F F"
O        0.99750305      -0.15953642      -0.00000000      -0.21988406       0.90115097      -0.41964052      -0.00000000
O       -0.14193213       0.42407011       0.00000000      -0.11171474      -1.67706083      -0.39849296       0.00000000
H       -0.87654524      -0.28893020       0.00000000       0.33159880       0.77590986       0.81813348      -0.00000000
3
Properties=species:S:1:pos:R:3:mulliken:R:1:forces:R:3 smiles="[O]O" connectivity="_JSON [[0, 1, 1.0], [1, 2, 1.0]]" spin=1 method=GFN2-xTB frame_kind=mode energy=-230.14838378952095 pbc="F F F"
O        1.00006001      -0.15589699      -0.00000000      -0.21245760       0.81364354      -0.90436658      -0.00000000
O       -0.14259259       0.41412961       0.00000000      -0.11549216      -0.78675528       1.67103339       0.00000000
H       -0.90664578      -0.18891426       0.00000000       0.32794976      -0.02688827      -0.76666682       0.00000000
3
Properties=species:S:1:pos:R:3:mulliken:R:1:forces:R:3 smiles="[O]O" connectivity="_JSON [[0, 1, 1.0], [1, 2, 1.0]]" spin=1 method=GFN2-xTB frame_kind=mode energy=-230.08958143912182 pbc="F F F"
O        1.01287977      -0.17245435      -0.00000000      -0.21759801      -0.26473477       0.65969385       0.00000000
O       -0.16572831       0.43709042       0.00000000      -0.13359832       2.30036294       0.83911657       0.00000000
H       -0.74289181      -0.29055667      -0.00000000       0.35119633      -2.03562817      -1.49881042      -0.00000000
3
Properties=species:S:1:pos:R:3:mulliken:R:1:forces:R:3 smiles="[O]O" connectivity="_JSON [[0, 1, 1.0], [1, 2, 1.0]]" spin=1 method=GFN2-xTB frame_kind=mode energy=-230.13897678628146 pbc="F F F"
O        1.01890954      -0.16403915      -0.00000000      -0.20696004      -1.14657747      -0.00404603      -0.00000000
O       -0.15858395       0.42265757       0.00000000      -0.12423990       0.11858978       0.05757183       0.00000000
H       -0.95199457      -0.19503281       0.00000000       0.33119993       1.02798769      -0.05352580      -0.00000000
3
Properties=species:S:1:pos:R:3:mulliken:R:1:forces:R:3 smiles="[O]O" connectivity="_JSON [[0, 1, 1.0], [1, 2, 1.0]]" spin=1 method=GFN2-xTB frame_kind=mode energy=-230.1617681645295 pbc="F F F"
O        1.00190404      -0.15926681      -0.00000000      -0.21376887       0.62831622      -0.56943413       0.00000000
O       -0.14720910       0.41878493       0.00000000      -0.11919962       0.20387184       1.70697672      -0.00000000
H       -0.86263742      -0.20931959       0.00000000       0.33296849      -0.83218807      -1.13754259       0.00000000
3
Properties=species:S:1:pos:R:3:mulliken:R:1:forces:R:3 smiles="[O]O" connectivity="_JSON [[0, 1, 1.0], [1, 2, 1.0]]" spin=1 method=GFN2-xTB frame_kind=mode energy=-230.15471465258622 pbc="F F F"
O        1.00359689      -0.16495259      -0.00000000      -0.22133726       0.26740547       0.13304968      -0.00000000
O       -0.14965008       0.43170283       0.00000000      -0.11703791      -1.00129198      -1.37064722      -0.00000000
H       -0.85076050      -0.32411229      -0.00000000       0.33837517       0.73388651       1.23759754       0.00000000
3
Properties=species:S:1:pos:R:3:mulliken:R:1:forces:R:3 smiles="[O]O" connectivity="_JSON [[0, 1, 1.0], [1, 2, 1.0]]" spin=1 method=GFN2-xTB frame_kind=mode energy=-230.13115899537223 pbc="F F F"
O        0.99756372      -0.15483762      -0.00000000      -0.21296409       1.13684579      -1.05620273      -0.00000000
O       -0.14089144       0.41264031       0.00000000      -0.11511392      -0.64459357       2.18487530      -0.00000000
H       -0.89402715      -0.18209112       0.00000000       0.32807801      -0.49225222      -1.12867257       0.00000000
3
Properties=species:S:1:pos:R:3:mulliken:R:1:forces:R:3 smiles="[O]O" connectivity="_JSON [[0, 1, 1.0], [1, 2, 1.0]]" spin=1 method=GFN2-xTB frame_kind=mode energy=-230.15543741090025 pbc="F F F"
O        0.99542102      -0.16187864      -0.00000000      -0.22272046       1.38357505      -0.31540900       0.00000000
O       -0.14570269       0.42627593       0.00000000      -0.11908353      -0.24929529       0.87178352      -0.00000000
H       -0.78365122      -0.28676875       0.00000000       0.34180398      -1.13427976      -0.55637453       0.00000000
3
Properties=species:S:1:pos:R:3:mulliken:R:1:forces:R:3 smiles="[O]O" connectivity="_JSON [[0, 1, 1.0], [1, 2, 1.0]]" spin=1 method=GFN2-xTB frame_kind=mode energy=-230.13912184194643 pbc="F F F"
O        0.98760196      -0.15440812      -0.00000000      -0.22113022       2.26042691      -1.13182636      -0.00000000
O       -0.13450837       0.41637157       0.00000000      -0.10998185      -1.63116881       1.69812850      -0.00000000
H       -0.83723304      -0.24813704       0.00000000       0.33111207      -0.62925809      -0.56630214       0.00000000
3
Properties=species:S:1:pos:R:3:mulliken:R:1:forces:R:3 smiles="[O]O" connectivity="_JSON [[0, 1, 1.0], [1, 2, 1.0]]" spin=1 method=GFN2-xTB frame_kind=mode energy=-230.06529523639324 pbc="F F F"
O        0.98824535      -0.14888083      -0.00000000      -0.21499509       2.13635619      -1.66686136       0.00000000
O       -0.12827320       0.40793982       0.00000000      -0.10292350      -3.21390523       1.68423562      -0.00000000
H       -0.94641343      -0.20203196       0.00000000       0.31791859       1.07754905      -0.01737426      -0.00000000
3
Properties=species:S:1:pos:R:3:mulliken:R:1:forces:R:3 smiles="[O]O" connectivity="_JSON [[0, 1, 1.0], [1, 2, 1.0]]" spin=1 method=GFN2-xTB frame_kind=mode energy=-230.19693989755382 pbc="F F F"
O        1.00752060      -0.16497523      -0.00000000      -0.21608446      -0.01098637       0.05256211      -0.00000000
O       -0.15407558       0.42796321       0.00000000      -0.12233549       0.23521869       0.09364143       0.00000000
H       -0.84279237      -0.26439486      -0.00000000       0.33841995      -0.22423232      -0.14620354       0.00000000
3
Properties=species:S:1:pos:R:3:mulliken:R:1:forces:R:3 smiles="[O]O" connectivity="_JSON [[0, 1, 1.0], [1, 2, 1.0]]" spin=1 method=GFN2-xTB frame_kind=mode energy=-230.13044893192273 pbc="F F F"
O        1.00686487      -0.16823402      -0.00000000      -0.21873259       0.24052468       0.29567321      -0.00000000
O       -0.15834364       0.43231261       0.00000000      -0.12821675       1.48700770       0.93230103       0.00000000
H       -0.76463953      -0.28170840      -0.00000000       0.34694935      -1.72753239      -1.22797424      -0.00000000
3
Properties=species:S:1:pos:R:3:mulliken:R:1:forces:R:3 smiles="[O]O" connectivity="_JSON [[0, 1, 1.0], [1, 2, 1.0]]" spin=1 method=GFN2-xTB frame_kind=mode energy=-230.1392803255354 pbc="F F F"
O        1.02204581      -0.17023499      -0.00000000      -0.20755757      -1.28016310       0.47382901       0.00000000
O       -0.16805528       0.43021311       0.00000000      -0.13234322       2.39830680       0.88414589       0.00000000
H       -0.85143753      -0.21661728      -0.00000000       0.33990079      -1.11814370      -1.35797491      -0.00000000
3
Properties=species:S:1:pos:R:3:mulliken:R:1:forces:R:3 smiles="[O]O" connectivity="_JSON [[0, 1, 1.0], [1, 2, 1.0]]" spin=1 method=GFN2-xTB frame_kind=conformer energy=-230.1954607668902 pbc="F F F"
O        1.00568363      -0.16307840       0.00000000      -0.21696625      -0.10049820       0.14275022       0.00000000
O       -0.15508655       0.43539627      -0.00000000      -0.12172639      -0.04338483      -0.44094606      -0.00000000
H       -0.85059708      -0.27231787      -0.00000000       0.33869264       0.14388303       0.29819584      -0.00000000
3
Properties=species:S:1:pos:R:3:mulliken:R:1:forces:R:3 smiles="[O]O" connectivity="_JSON [[0, 1, 1.0], [1, 2, 1.0]]" spin=1 method=GFN2-xTB frame_kind=conformer energy=-230.1954607668902 pbc="F F F"
O        1.00568363      -0.16307840       0.00000000      -0.21696625      -0.10049820       0.14275022       0.00000000
O       -0.15508655       0.43539627      -0.00000000      -0.12172639      -0.04338483      -0.44094606      -0.00000000
H       -0.85059708      -0.27231787      -0.00000000       0.33869264       0.14388303       0.29819584      -0.00000000
3
Properties=species:S:1:pos:R:3:mulliken:R:1:forces:R:3 smiles="[O]O" connectivity="_JSON [[0, 1, 1.0], [1, 2, 1.0]]" spin=1 method=GFN2-xTB frame_kind=conformer energy=-230.1954607668902 pbc="F F F"
O        1.00568363      -0.16307840       0.00000000      -0.21696625      -0.10049820       0.14275022       0.00000000
O       -0.15508655       0.43539627      -0.00000000      -0.12172639      -0.04338483      -0.44094606      -0.00000000
H       -0.85059708      -0.27231787      -0.00000000       0.33869264       0.14388303       0.29819584      -0.00000000
3
Properties=species:S:1:pos:R:3:mulliken:R:1:forces:R:3 smiles="[O]O" connectivity="_JSON [[0, 1, 1.0], [1, 2, 1.0]]" spin=1 method=GFN2-xTB frame_kind=conformer energy=-230.1954607668902 pbc="F F F"
O        1.00568363      -0.16307840       0.00000000      -0.21696625      -0.10049820       0.14275022       0.00000000
O       -0.15508655       0.43539627      -0.00000000      -0.12172639      -0.04338483      -0.44094606      -0.00000000
H       -0.85059708      -0.27231787      -0.00000000       0.33869264       0.14388303       0.29819584      -0.00000000
3
Properties=species:S:1:pos:R:3:mulliken:R:1:forces:R:3 smiles="[O]O" connectivity="_JSON [[0, 1, 1.0], [1, 2, 1.0]]" spin=1 method=GFN2-xTB frame_kind=conformer energy=-230.1954607668902 pbc="F F F"
O        1.00568363      -0.16307840       0.00000000      -0.21696625      -0.10049820       0.14275022       0.00000000
O       -0.15508655       0.43539627      -0.00000000      -0.12172639      -0.04338483      -0.44094606      -0.00000000
H       -0.85059708      -0.27231787      -0.00000000       0.33869264       0.14388303       0.29819584      -0.00000000
3
Properties=species:S:1:pos:R:3:mulliken:R:1:forces:R:3 smiles="[O]O" connectivity="_JSON [[0, 1, 1.0], [1, 2, 1.0]]" spin=1 method=GFN2-xTB frame_kind=conformer energy=-230.1954607668902 pbc="F F F"
O        1.00568363      -0.16307840       0.00000000      -0.21696625      -0.10049820       0.14275022       0.00000000
O       -0.15508655       0.43539627      -0.00000000      -0.12172639      -0.04338483      -0.44094606      -0.00000000
H       -0.85059708      -0.27231787      -0.00000000       0.33869264       0.14388303       0.29819584      -0.00000000
3
Properties=species:S:1:pos:R:3:mulliken:R:1:forces:R:3 smiles="[O]O" connectivity="_JSON [[0, 1, 1.0], [1, 2, 1.0]]" spin=1 method=GFN2-xTB frame_kind=conformer energy=-230.1954607668902 pbc="F F F"
O        1.00568363      -0.16307840       0.00000000      -0.21696625      -0.10049820       0.14275022       0.00000000
O       -0.15508655       0.43539627      -0.00000000      -0.12172639      -0.04338483      -0.44094606      -0.00000000
H       -0.85059708      -0.27231787      -0.00000000       0.33869264       0.14388303       0.29819584      -0.00000000
3
Properties=species:S:1:pos:R:3:mulliken:R:1:forces:R:3 smiles="[O]O" connectivity="_JSON [[0, 1, 1.0], [1, 2, 1.0]]" spin=1 method=GFN2-xTB frame_kind=conformer energy=-230.1954607668902 pbc="F F F"
O        1.00568363      -0.16307840       0.00000000      -0.21696625      -0.10049820       0.14275022       0.00000000
O       -0.15508655       0.43539627      -0.00000000      -0.12172639      -0.04338483      -0.44094606      -0.00000000
H       -0.85059708      -0.27231787      -0.00000000       0.33869264       0.14388303       0.29819584      -0.00000000
3
Properties=species:S:1:pos:R:3:mulliken:R:1:forces:R:3 smiles="[O]O" connectivity="_JSON [[0, 1, 1.0], [1, 2, 1.0]]" spin=1 method=GFN2-xTB frame_kind=conformer energy=-230.1954607668902 pbc="F F F"
O        1.00568363      -0.16307840       0.00000000      -0.21696625      -0.10049820       0.14275022       0.00000000
O       -0.15508655       0.43539627      -0.00000000      -0.12172639      -0.04338483      -0.44094606      -0.00000000
H       -0.85059708      -0.27231787      -0.00000000       0.33869264       0.14388303       0.29819584      -0.00000000
3
Properties=species:S:1:pos:R:3:mulliken:R:1:forces:R:3 smiles="[O]O" connectivity="_JSON [[0, 1, 1.0], [1, 2, 1.0]]" spin=1 method=GFN2-xTB frame_kind=conformer energy=-230.1954607668902 pbc="F F F"
O        1.00568363      -0.16307840       0.00000000      -0.21696625      -0.10049820       0.14275022       0.00000000
O       -0.15508655       0.43539627      -0.00000000      -0.12172639      -0.04338483      -0.44094606      -0.00000000
H       -0.85059708      -0.27231787      -0.00000000       0.33869264       0.14388303       0.29819584      -0.00000000
3
Properties=species:S:1:pos:R:3:mulliken:R:1:forces:R:3 smiles="[O]O" connectivity="_JSON [[0, 1, 1.0], [1, 2, 1.0]]" spin=1 method=GFN2-xTB frame_kind=conformer energy=-230.1954607668902 pbc="F F F"
O        1.00568363      -0.16307840       0.00000000      -0.21696625      -0.10049820       0.14275022       0.00000000
O       -0.15508655       0.43539627      -0.00000000      -0.12172639      -0.04338483      -0.44094606      -0.00000000
H       -0.85059708      -0.27231787      -0.00000000       0.33869264       0.14388303       0.29819584      -0.00000000
3
Properties=species:S:1:pos:R:3:mulliken:R:1:forces:R:3 smiles="[O]O" connectivity="_JSON [[0, 1, 1.0], [1, 2, 1.0]]" spin=1 method=GFN2-xTB frame_kind=conformer energy=-230.1954607668902 pbc="F F F"
O        1.00568363      -0.16307840       0.00000000      -0.21696625      -0.10049820       0.14275022       0.00000000
O       -0.15508655       0.43539627      -0.00000000      -0.12172639      -0.04338483      -0.44094606      -0.00000000
H       -0.85059708      -0.27231787      -0.00000000       0.33869264       0.14388303       0.29819584      -0.00000000
3
Properties=species:S:1:pos:R:3:mulliken:R:1:forces:R:3 smiles="[O]O" connectivity="_JSON [[0, 1, 1.0], [1, 2, 1.0]]" spin=1 method=GFN2-xTB frame_kind=conformer energy=-230.1954607668902 pbc="F F F"
O        1.00568363      -0.16307840       0.00000000      -0.21696625      -0.10049820       0.14275022       0.00000000
O       -0.15508655       0.43539627      -0.00000000      -0.12172639      -0.04338483      -0.44094606      -0.00000000
H       -0.85059708      -0.27231787      -0.00000000       0.33869264       0.14388303       0.29819584      -0.00000000
3
Properties=species:S:1:pos:R:3:mulliken:R:1:forces:R:3 smiles="[O]O" connectivity="_JSON [[0, 1, 1.0], [1, 2, 1.0]]" spin=1 method=GFN2-xTB frame_kind=conformer energy=-230.1954607668902 pbc="F F F"
O        1.00568363      -0.16307840       0.00000000      -0.21696625      -0.10049820       0.14275022       0.00000000
O       -0.15508655       0.43539627      -0.00000000      -0.12172639      -0.04338483      -0.44094606      -0.00000000
H       -0.85059708      -0.27231787      -0.00000000       0.33869264       0.14388303       0.29819584      -0.00000000
3
Properties=species:S:1:pos:R:3:mulliken:R:1:forces:R:3 smiles="[O]O" connectivity="_JSON [[0, 1, 1.0], [1, 2, 1.0]]" spin=1 method=GFN2-xTB frame_kind=conformer energy=-230.1954607668902 pbc="F F F"
O        1.00568363      -0.16307840       0.00000000      -0.21696625      -0.10049820       0.14275022       0.00000000
O       -0.15508655       0.43539627      -0.00000000      -0.12172639      -0.04338483      -0.44094606      -0.00000000
H       -0.85059708      -0.27231787      -0.00000000       0.33869264       0.14388303       0.29819584      -0.00000000
3
Properties=species:S:1:pos:R:3:mulliken:R:1:forces:R:3 smiles="[O]O" connectivity="_JSON [[0, 1, 1.0], [1, 2, 1.0]]" spin=1 method=GFN2-xTB frame_kind=conformer energy=-230.1954607668902 pbc="F F F"
O        1.00568363      -0.16307840       0.00000000      -0.21696625      -0.10049820       0.14275022       0.00000000
O       -0.15508655       0.43539627      -0.00000000      -0.12172639      -0.04338483      -0.44094606      -0.00000000
H       -0.85059708      -0.27231787      -0.00000000       0.33869264       0.14388303       0.29819584      -0.00000000
3
Properties=species:S:1:pos:R:3:mulliken:R:1:forces:R:3 smiles="[O]O" connectivity="_JSON [[0, 1, 1.0], [1, 2, 1.0]]" spin=1 method=GFN2-xTB frame_kind=conformer energy=-230.1954607668902 pbc="F F F"
O        1.00568363      -0.16307840       0.00000000      -0.21696625      -0.10049820       0.14275022       0.00000000
O       -0.15508655       0.43539627      -0.00000000      -0.12172639      -0.04338483      -0.44094606      -0.00000000
H       -0.85059708      -0.27231787      -0.00000000       0.33869264       0.14388303       0.29819584      -0.00000000
3
Properties=species:S:1:pos:R:3:mulliken:R:1:forces:R:3 smiles="[O]O" connectivity="_JSON [[0, 1, 1.0], [1, 2, 1.0]]" spin=1 method=GFN2-xTB frame_kind=conformer energy=-230.1954607668902 pbc="F F F"
O        1.00568363      -0.16307840       0.00000000      -0.21696625      -0.10049820       0.14275022       0.00000000
O       -0.15508655       0.43539627      -0.00000000      -0.12172639      -0.04338483      -0.44094606      -0.00000000
H       -0.85059708      -0.27231787      -0.00000000       0.33869264       0.14388303       0.29819584      -0.00000000
3
Properties=species:S:1:pos:R:3:mulliken:R:1:forces:R:3 smiles="[O]O" connectivity="_JSON [[0, 1, 1.0], [1, 2, 1.0]]" spin=1 method=GFN2-xTB frame_kind=conformer energy=-230.1954607668902 pbc="F F F"
O        1.00568363      -0.16307840       0.00000000      -0.21696625      -0.10049820       0.14275022       0.00000000
O       -0.15508655       0.43539627      -0.00000000      -0.12172639      -0.04338483      -0.44094606      -0.00000000
H       -0.85059708      -0.27231787      -0.00000000       0.33869264       0.14388303       0.29819584      -0.00000000
3
Properties=species:S:1:pos:R:3:mulliken:R:1:forces:R:3 smiles="[O]O" connectivity="_JSON [[0, 1, 1.0], [1, 2, 1.0]]" spin=1 method=GFN2-xTB frame_kind=conformer energy=-230.1954607668902 pbc="F F F"
O        1.00568363      -0.16307840       0.00000000      -0.21696625      -0.10049820       0.14275022       0.00000000
O       -0.15508655       0.43539627      -0.00000000      -0.12172639      -0.04338483      -0.44094606      -0.00000000
H       -0.85059708      -0.27231787      -0.00000000       0.33869264       0.14388303       0.29819584      -0.00000000
