4
Properties=species:S:1:pos:R:3:mulliken:R:1:forces:R:3 smiles=OO connectivity="_JSON [[0, 1, 1.0], [0, 2, 1.0], [1, 3, 1.0]]" spin=0 method=GFN2-xTB frame_kind=equilibrium charge=0 fit_config="{\"temperature\": 500.0, \"n_mode_frames\": 40, \"n_conformers\": 20, \"torsion_step_deg\": 15.0, \"hessian_delta\": 0.01, \"fmax\": 0.001, \"energy_weight\": null, \"regularization\": 0.001, \"seed\": 0, \"bond_form\": \"morse\", \"electrostatics\": \"fixed\", \"n_cycles\": 200, \"cycle_tol\": 0.0001}" energy=-246.39011351026977 pbc="F F F"
O       -0.55298763       0.44598750      -0.00428946      -0.32383459      -0.00026660      -0.00016701      -0.00000964
O        0.55299942      -0.44600276       0.00433940      -0.32383360       0.00019398       0.00034386      -0.00001391
H       -1.30320383      -0.16201528       0.00060056       0.32383288       0.00029421       0.00013014       0.00000999
H        1.30319204       0.16203054      -0.00065050       0.32383531      -0.00022160      -0.00030699       0.00001356
4
Properties=species:S:1:pos:R:3:mulliken:R:1:forces:R:3 smiles=OO connectivity="_JSON [[0, 1, 1.0], [0, 2, 1.0], [1, 3, 1.0]]" spin=0 method=GFN2-xTB frame_kind=hessian hessian_column=0 hessian_sign=1 hessian_delta=0.01 energy=-246.38763923417983 pbc="F F F"
O       -0.54298763       0.44598750      -0.00428946      -0.32333605      -0.49380189      -0.03752931       0.00000040
O        0.55299942      -0.44600276       0.00433940      -0.32391793       0.21577288      -0.14512830       0.00141674
H       -1.30320383      -0.16201528       0.00060056       0.32344044       0.24595095       0.20306748      -0.00162863
H        1.30319204       0.16203054      -0.00065050       0.32381355       0.03207805      -0.02040986       0.00021150
4
Properties=species:S:1:pos:R:3:mulliken:R:1:forces:R:3 smiles=OO connectivity="_JSON [[0, 1, 1.0], [0, 2, 1.0], [1, 3, 1.0]]" spin=0 method=GFN2-xTB frame_kind=hessian hessian_column=0 hessian_sign=-1 hessian_delta=0.01 energy=-246.38762854883063 pbc="F F F"
O       -0.56298763       0.44598750      -0.00428946      -0.32431983       0.49813356       0.05969107      -0.00021369
O        0.55299942      -0.44600276       0.00433940      -0.32374492      -0.20827883       0.13881771      -0.00137572
H       -1.30320383      -0.16201528       0.00060056       0.32420463      -0.25844390      -0.21768437       0.00176725
H        1.30319204       0.16203054      -0.00065050       0.32386012      -0.03141083       0.01917559      -0.00017784
4
Properties=species:S:1:pos:R:3:mulliken:R:1:forces:R:3 smiles=OO connectivity="_JSON [[0, 1, 1.0], [0, 2, 1.0], [1, 3, 1.0]]" spin=0 method=GFN2-xTB frame_kind=hessian hessian_column=1 hessian_sign=1 hessian_delta=0.01 energy=-246.38818476549739 pbc="F F F"
O       -0.55298763       0.45598750      -0.00428946      -0.32395662      -0.04644567      -0.38407420       0.00330449
O        0.55299942      -0.44600276       0.00433940      -0.32469830      -0.13872297       0.18709837      -0.00175460
H       -1.30320383      -0.16201528       0.00060056       0.32458505       0.17446366       0.21423803      -0.00173131
H        1.30319204       0.16203054      -0.00065050       0.32406986       0.01070498      -0.01726219       0.00018143
4
Properties=species:S:1:pos:R:3:mulliken:R:1:forces:R:3 smiles=OO connectivity="_JSON [[0, 1, 1.0], [0, 2, 1.0], [1, 3, 1.0]]" spin=0 method=GFN2-xTB frame_kind=hessian hessian_column=1 hessian_sign=-1 hessian_delta=0.01 energy=-246.38815823901635 pbc="F F F"
O       -0.55298763       0.43598750      -0.00428946      -0.32372960       0.05062710       0.39269270      -0.00349532
O        0.55299942      -0.44600276       0.00433940      -0.32296657       0.14518922      -0.19050530       0.00180302
H       -1.30320383      -0.16201528       0.00060056       0.32310291      -0.18440021      -0.21920589       0.00185151
H        1.30319204       0.16203054      -0.00065050       0.32359326      -0.01141611       0.01701849      -0.00015922
4
Properties=species:S:1:pos:R:3:mulliken:R:1:forces:R:3 smiles=OO connectivity="_JSON [[0, 1, 1.0], [0, 2, 1.0], [1, 3, 1.0]]" spin=0 method=GFN2-xTB frame_kind=hessian hessian_column=2 hessian_sign=1 hessian_delta=0.01 energy=-246.39010789176217 pbc="F F F"
O       -0.55298763       0.44598750       0.00571054      -0.32383177      -0.00087359       0.00054001      -0.00111011
O        0.55299942      -0.44600276       0.00433940      -0.32383112       0.00079425      -0.00043041      -0.00111297
H       -1.30320383      -0.16201528       0.00060056       0.32383056       0.00037811       0.00006607       0.00111135
H        1.30319204       0.16203054      -0.00065050       0.32383232      -0.00029876      -0.00017568       0.00111173
4
Properties=species:S:1:pos:R:3:mulliken:R:1:forces:R:3 smiles=OO connectivity="_JSON [[0, 1, 1.0], [0, 2, 1.0], [1, 3, 1.0]]" spin=0 method=GFN2-xTB frame_kind=hessian hessian_column=2 hessian_sign=-1 hessian_delta=0.01 energy=-246.39010761767904 pbc="F F F"
O       -0.55298763       0.44598750      -0.01428946      -0.32383468      -0.00108510      -0.00625512       0.00123098
O        0.55299942      -0.44600276       0.00433940      -0.32384616      -0.00199841       0.00312553       0.00102824
H       -1.30320383      -0.16201528       0.00060056       0.32384424       0.00322247       0.00360700      -0.00117600
H        1.30319204       0.16203054      -0.00065050       0.32383660      -0.00013895      -0.00047741      -0.00108322
4
Properties=species:S:1:pos:R:3:mulliken:R:1:forces:R:3 smiles=OO connectivity="_JSON [[0, 1, 1.0], [0, 2, 1.0], [1, 3, 1.0]]" spin=0 method=GFN2-xTB frame_kind=hessian hessian_column=3 hessian_sign=1 hessian_delta=0.01 energy=-246.38762792782393 pbc="F F F"
O       -0.55298763       0.44598750      -0.00428946      -0.32374598       0.20820621      -0.13864168       0.00135306
O        0.56299942      -0.44600276       0.00433940      -0.32431881      -0.49818483      -0.05951496       0.00022241
H       -1.30320383      -0.16201528       0.00060056       0.32385776       0.03148092      -0.01935149       0.00020259
H        1.30319204       0.16203054      -0.00065050       0.32420704       0.25849771       0.21750813      -0.00177806
4
Properties=species:S:1:pos:R:3:mulliken:R:1:forces:R:3 smiles=OO connectivity="_JSON [[0, 1, 1.0], [0, 2, 1.0], [1, 3, 1.0]]" spin=0 method=GFN2-xTB frame_kind=hessian hessian_column=3 hessian_sign=-1 hessian_delta=0.01 energy=-246.3876400587508 pbc="F F F"
O       -0.55298763       0.44598750      -0.00428946      -0.32391886      -0.21584550       0.14530595      -0.00144113
O        0.54299942      -0.44600276       0.00433940      -0.32333508       0.49370987       0.03770746      -0.00005362
H       -1.30320383      -0.16201528       0.00060056       0.32381105      -0.03200287       0.02023209      -0.00018923
H        1.30319204       0.16203054      -0.00065050       0.32344289      -0.24586151      -0.20324550       0.00168399
4
Properties=species:S:1:pos:R:3:mulliken:R:1:forces:R:3 smiles=OO connectivity="_JSON [[0, 1, 1.0], [0, 2, 1.0], [1, 3, 1.0]]" spin=0 method=GFN2-xTB frame_kind=hessian hessian_column=4 hessian_sign=1 hessian_delta=0.01 energy=-246.38815995702984 pbc="F F F"
O       -0.55298763       0.44598750      -0.00428946      -0.32296760      -0.14526098       0.19068215      -0.00182672
O        0.55299942      -0.43600276       0.00433940      -0.32372854      -0.05070121      -0.39252618       0.00350629
H       -1.30320383      -0.16201528       0.00060056       0.32359086       0.01148888      -0.01719662       0.00018046
H        1.30319204       0.16203054      -0.00065050       0.32310528       0.18447331       0.21904065      -0.00186003
4
Properties=species:S:1:pos:R:3:mulliken:R:1:forces:R:3 smiles=OO connectivity="_JSON [[0, 1, 1.0], [0, 2, 1.0], [1, 3, 1.0]]" spin=0 method=GFN2-xTB frame_kind=hessian hessian_column=4 hessian_sign=-1 hessian_delta=0.01 energy=-246.38818295100688 pbc="F F F"
O       -0.55298763       0.44598750      -0.00428946      -0.32469926       0.13864959      -0.18692152       0.00173119
O        0.55299942      -0.45600276       0.00433940      -0.32395569       0.04637366       0.38426003      -0.00336059
H       -1.30320383      -0.16201528       0.00060056       0.32406741      -0.01063252       0.01708664      -0.00015572
H        1.30319204       0.16203054      -0.00065050       0.32458754      -0.17439073      -0.21442515       0.00178511
4
Properties=species:S:1:pos:R:3:mulliken:R:1:forces:R:3 smiles=OO connectivity="_JSON [[0, 1, 1.0], [0, 2, 1.0], [1, 3, 1.0]]" spin=0 method=GFN2-xTB frame_kind=hessian hessian_column=5 hessian_sign=1 hessian_delta=0.01 energy=-246.39010735931103 pbc="F F F"
O       -0.55298763       0.44598750      -0.00428946      -0.32384718       0.00192495      -0.00294851      -0.00105174
O        0.55299942      -0.44600276       0.01433940      -0.32383361       0.00104331       0.00646543      -0.00125937
H       -1.30320383      -0.16201528       0.00060056       0.32383409       0.00021285       0.00029831       0.00110809
H        1.30319204       0.16203054      -0.00065050       0.32384670      -0.00318111      -0.00381524       0.00120302
4
Properties=species:S:1:pos:R:3:mulliken:R:1:forces:R:3 smiles=OO connectivity="_JSON [[0, 1, 1.0], [0, 2, 1.0], [1, 3, 1.0]]" spin=0 method=GFN2-xTB frame_kind=hessian hessian_column=5 hessian_sign=-1 hessian_delta=0.01 energy=-246.39010810988952 pbc="F F F"
O       -0.55298763       0.44598750      -0.00428946      -0.32383206      -0.00086601       0.00060713       0.00108947
O        0.55299942      -0.44600276      -0.00566060      -0.32383087       0.00076996      -0.00039672       0.00108976
H       -1.30320383      -0.16201528       0.00060056       0.32382997       0.00037008       0.00000109      -0.00108945
H        1.30319204       0.16203054      -0.00065050       0.32383297      -0.00027403      -0.00021150      -0.00108978
4
Properties=species:S:1:pos:R:3:mulliken:R:1:forces:R:3 smiles=OO connectivity="_JSON [[0, 1, 1.0], [0, 2, 1.0], [1, 3, 1.0]]" spin=0 method=GFN2-xTB frame_kind=hessian hessian_column=6 hessian_sign=1 hessian_delta=0.01 energy=-246.3886462408751 pbc="F F F"
O       -0.55298763       0.44598750      -0.00428946      -0.32443968       0.25821267       0.18675373      -0.00149320
O        0.55299942      -0.44600276       0.00433940      -0.32386127       0.03230819       0.01144607      -0.00009247
H       -1.29320383      -0.16201528       0.00060056       0.32433176      -0.29601810      -0.19443731       0.00153666
H        1.30319204       0.16203054      -0.00065050       0.32396919       0.00549724      -0.00376249       0.00004901
4
Properties=species:S:1:pos:R:3:mulliken:R:1:forces:R:3 smiles=OO connectivity="_JSON [[0, 1, 1.0], [0, 2, 1.0], [1, 3, 1.0]]" spin=0 method=GFN2-xTB frame_kind=hessian hessian_column=6 hessian_sign=-1 hessian_delta=0.01 energy=-246.38868481912294 pbc="F F F"
O       -0.55298763       0.44598750      -0.00428946      -0.32323550      -0.24618975      -0.17229440       0.00135535
O        0.55299942      -0.44600276       0.00433940      -0.32381411      -0.03117378      -0.01067488       0.00006467
H       -1.31320383      -0.16201528       0.00060056       0.32334775       0.28324711       0.17984834      -0.00139848
H        1.30319204       0.16203054      -0.00065050       0.32370186      -0.00588358       0.00312094      -0.00002155
4
Properties=species:S:1:pos:R:3:mulliken:R:1:forces:R:3 smiles=OO connectivity="_JSON [[0, 1, 1.0], [0, 2, 1.0], [1, 3, 1.0]]" spin=0 method=GFN2-xTB frame_kind=hessian hessian_column=7 hessian_sign=1 hessian_delta=0.01 energy=-246.38910678473442 pbc="F F F"
O       -0.55298763       0.44598750      -0.00428946      -0.32411519       0.21553643       0.21882089      -0.00182589
O        0.55299942      -0.44600276       0.00433940      -0.32335716      -0.01957338      -0.01692190       0.00013826
H       -1.30320383      -0.15201528       0.00060056       0.32348662      -0.19230255      -0.20218465       0.00169124
H        1.30319204       0.16203054      -0.00065050       0.32398572      -0.00366050       0.00028566      -0.00000361
4
Properties=species:S:1:pos:R:3:mulliken:R:1:forces:R:3 smiles=OO connectivity="_JSON [[0, 1, 1.0], [0, 2, 1.0], [1, 3, 1.0]]" spin=0 method=GFN2-xTB frame_kind=hessian hessian_column=7 hessian_sign=-1 hessian_delta=0.01 energy=-246.38911840481566 pbc="F F F"
O       -0.55298763       0.44598750      -0.00428946      -0.32356213      -0.20502773      -0.21462388       0.00171775
O        0.55299942      -0.44600276       0.00433940      -0.32430850       0.02000375       0.01735887      -0.00015933
H       -1.30320383      -0.17201528       0.00060056       0.32418865       0.18180176       0.19815456      -0.00158927
H        1.30319204       0.16203054      -0.00065050       0.32368197       0.00322222      -0.00088955       0.00003085
4
Properties=species:S:1:pos:R:3:mulliken:R:1:forces:R:3 smiles=OO connectivity="_JSON [[0, 1, 1.0], [0, 2, 1.0], [1, 3, 1.0]]" spin=0 method=GFN2-xTB frame_kind=hessian hessian_column=8 hessian_sign=1 hessian_delta=0.01 energy=-246.39010785483933 pbc="F F F"
O       -0.55298763       0.44598750      -0.00428946      -0.32382924      -0.00364114      -0.00347891       0.00116871
O        0.55299942      -0.44600276       0.00433940      -0.32383917       0.00034818       0.00058748       0.00108107
H       -1.30320383      -0.16201528       0.01060056       0.32383583       0.00346381       0.00321631      -0.00116417
H        1.30319204       0.16203054      -0.00065050       0.32383258      -0.00017085      -0.00032488      -0.00108561
4
Properties=species:S:1:pos:R:3:mulliken:R:1:forces:R:3 smiles=OO connectivity="_JSON [[0, 1, 1.0], [0, 2, 1.0], [1, 3, 1.0]]" spin=0 method=GFN2-xTB frame_kind=hessian hessian_column=8 hessian_sign=-1 hessian_delta=0.01 energy=-246.39010788969586 pbc="F F F"
O       -0.55298763       0.44598750      -0.00428946      -0.32383315      -0.00024969       0.00010133      -0.00111142
O        0.55299942      -0.44600276       0.00433940      -0.32383091      -0.00004340       0.00025156      -0.00111507
H       -1.30320383      -0.16201528      -0.00939944       0.32382891       0.00053293      -0.00006193       0.00111399
H        1.30319204       0.16203054      -0.00065050       0.32383515      -0.00023984      -0.00029095       0.00111251
4
Properties=species:S:1:pos:R:3:mulliken:R:1:forces:R:3 smiles=OO connectivity="_JSON [[0, 1, 1.0], [0, 2, 1.0], [1, 3, 1.0]]" spin=0 method=GFN2-xTB frame_kind=hessian hessian_column=9 hessian_sign=1 hessian_delta=0.01 energy=-246.38868561824773 pbc="F F F"
O       -0.55298763       0.44598750      -0.00428946      -0.32381509       0.03110369       0.01085158      -0.00008948
O        0.55299942      -0.44600276       0.00433940      -0.32323447       0.24610029       0.17247155      -0.00140907
H       -1.30320383      -0.16201528       0.00060056       0.32369944       0.00595619      -0.00329775       0.00004428
H        1.31319204       0.16203054      -0.00065050       0.32335012      -0.28316018      -0.18002538       0.00145426
4
Properties=species:S:1:pos:R:3:mulliken:R:1:forces:R:3 smiles=OO connectivity="_JSON [[0, 1, 1.0], [0, 2, 1.0], [1, 3, 1.0]]" spin=0 method=GFN2-xTB frame_kind=hessian hessian_column=9 hessian_sign=-1 hessian_delta=0.01 energy=-246.38864559431022 pbc="F F F"
O       -0.55298763       0.44598750      -0.00428946      -0.32386228      -0.03238339      -0.01126906       0.00007025
O        0.55299942      -0.44600276       0.00433940      -0.32443872      -0.25826648      -0.18657668       0.00150229
H       -1.30320383      -0.16201528       0.00060056       0.32396676      -0.00542462       0.00358562      -0.00002465
H        1.29319204       0.16203054      -0.00065050       0.32433424       0.29607449       0.19426011      -0.00154789
4
Properties=species:S:1:pos:R:3:mulliken:R:1:forces:R:3 smiles=OO connectivity="_JSON [[0, 1, 1.0], [0, 2, 1.0], [1, 3, 1.0]]" spin=0 method=GFN2-xTB frame_kind=hessian hessian_column=10 hessian_sign=1 hessian_delta=0.01 energy=-246.3891165773928 pbc="F F F"
O       -0.55298763       0.44598750      -0.00428946      -0.32430949      -0.02007728      -0.01718073       0.00013799
O        0.55299942      -0.44600276       0.00433940      -0.32356117       0.20495560       0.21481100      -0.00177192
H       -1.30320383      -0.16201528       0.00060056       0.32367953      -0.00314963       0.00071271      -0.00000716
H        1.30319204       0.17203054      -0.00065050       0.32419112      -0.18172868      -0.19834297       0.00164109
4
Properties=species:S:1:pos:R:3:mulliken:R:1:forces:R:3 smiles=OO connectivity="_JSON [[0, 1, 1.0], [0, 2, 1.0], [1, 3, 1.0]]" spin=0 method=GFN2-xTB frame_kind=hessian hessian_column=10 hessian_sign=-1 hessian_delta=0.01 energy=-246.38910848984122 pbc="F F F"
O       -0.55298763       0.44598750      -0.00428946      -0.32335816       0.01950172       0.01709745      -0.00016409
O        0.55299942      -0.44600276       0.00433940      -0.32411416      -0.21561042      -0.21865566       0.00183458
H       -1.30320383      -0.16201528       0.00060056       0.32398331       0.00373315      -0.00046251       0.00002704
H        1.30319204       0.15203054      -0.00065050       0.32348901       0.19237555       0.20202071      -0.00169753
4
Properties=species:S:1:pos:R:3:mulliken:R:1:forces:R:3 smiles=OO connectivity="_JSON [[0, 1, 1.0], [0, 2, 1.0], [1, 3, 1.0]]" spin=0 method=GFN2-xTB frame_kind=hessian hessian_column=11 hessian_sign=1 hessian_delta=0.01 energy=-246.39010812038015 pbc="F F F"
O       -0.55298763       0.44598750      -0.00428946      -0.32383187      -0.00003045      -0.00007246       0.00109024
O        0.55299942      -0.44600276       0.00433940      -0.32383224       0.00014393       0.00004440       0.00108990
H       -1.30320383      -0.16201528       0.00060056       0.32383275       0.00031327       0.00011397      -0.00108896
H        1.30319204       0.16203054       0.00934950       0.32383136      -0.00042676      -0.00008590      -0.00109118
4
Properties=species:S:1:pos:R:3:mulliken:R:1:forces:R:3 smiles=OO connectivity="_JSON [[0, 1, 1.0], [0, 2, 1.0], [1, 3, 1.0]]" spin=0 method=GFN2-xTB frame_kind=hessian hessian_column=11 hessian_sign=-1 hessian_delta=0.01 energy=-246.39010760987563 pbc="F F F"
O       -0.55298763       0.44598750      -0.00428946      -0.32384017      -0.00041953      -0.00041285      -0.00110330
O        0.55299942      -0.44600276       0.00433940      -0.32382818       0.00360144       0.00368691      -0.00119569
H       -1.30320383      -0.16201528       0.00060056       0.32383012       0.00024265       0.00014815       0.00110916
H        1.30319204       0.16203054      -0.01065050       0.32383824      -0.00342456      -0.00342220       0.00118983
4
Properties=species:S:1:pos:R:3:mulliken:R:1:forces:R:3 smiles=OO connectivity="_JSON [[0, 1, 1.0], [0, 2, 1.0], [1, 3, 1.0]]" spin=0 method=GFN2-xTB frame_kind=mode energy=-246.37251595787967 pbc="F F F"
O       -0.55358094       0.44654621      -0.00197577      -0.32439180       0.59554779       0.43431726       0.00853307
O        0.54961946      -0.44308950       0.00663369      -0.32481442       0.21311204      -0.26407074       0.01048570
H       -1.25774044      -0.18747345      -0.03593465       0.32736073      -0.80591969      -0.36170276      -0.02070201
H        1.32079388       0.13237790      -0.03718184       0.32184549      -0.00274015       0.19145624       0.00168324
4
Properties=species:S:1:pos:R:3:mulliken:R:1:forces:R:3 smiles=OO connectivity="_JSON [[0, 1, 1.0], [0, 2, 1.0], [1, 3, 1.0]]" spin=0 method=GFN2-xTB frame_kind=mode energy=-246.22734566798928 pbc="F F F"
O       -0.56447745       0.44583146       0.01671665      -0.31901724      -0.59825874      -1.13057783      -0.56574741
O        0.56749373      -0.44939498       0.02542378      -0.31622827       0.25117676       1.48090030      -0.77404517
H       -1.36625169      -0.07912573      -0.33354655       0.31573829       1.76398603       0.64352577       0.65760467
H        1.31855141       0.13543225      -0.33391907       0.31950722      -1.41690405      -0.99384825       0.68218791
4
Properties=species:S:1:pos:R:3:mulliken:R:1:forces:R:3 smiles=OO connectivity="_JSON [[0, 1, 1.0], [0, 2, 1.0], [1, 3, 1.0]]" spin=0 method=GFN2-xTB frame_kind=mode energy=-246.21787469185728 pbc="F F F"
O       -0.55029991       0.44057256      -0.02599383      -0.31945552      -1.69975209      -1.12519837       0.71711746
O        0.55385893      -0.44467942      -0.01745975      -0.31779601       1.19578544       1.44551991       0.85226101
H       -1.33881140      -0.11275095       0.34528176       0.31615514       1.76661676       1.03505576      -0.81396469
H        1.28249637       0.17773700       0.34448853       0.32109639      -1.26265010      -1.35537730      -0.75541378
4
Properties=species:S:1:pos:R:3:mulliken:R:1:forces:R:3 smiles=OO connectivity="_JSON [[0, 1, 1.0], [0, 2, 1.0], [1, 3, 1.0]]" spin=0 method=GFN2-xTB frame_kind=mode energy=-246.31895382207253 pbc="F F F"
O       -0.56678581       0.46259572       0.00314612      -0.33072249       1.13656734      -1.02832368       0.03606443
O        0.56671992      -0.46386145       0.01211099      -0.32908138      -0.64545641       1.58619740      -0.09877909
H       -1.25455735      -0.18737838      -0.11959553       0.32920746      -0.66132753      -0.08093104      -0.02064244
H        1.25577827       0.20723141      -0.12158972       0.33059642       0.17021661      -0.47694268       0.08335710
4
Properties=species:S:1:pos:R:3:mulliken:R:1:forces:R:3 smiles=OO connectivity="_JSON [[0, 1, 1.0], [0, 2, 1.0], [1, 3, 1.0]]" spin=0 method=GFN2-xTB frame_kind=mode energy=-246.3133210741068 pbc="F F F"
O       -0.55395953       0.43908808       0.01243444      -0.32090287      -0.78135740      -0.18550758      -0.22686142
O        0.55725162      -0.44384028       0.02101247      -0.31697491       0.57088980       0.73101492      -0.49511186
H       -1.35540111      -0.08303061      -0.26450931       0.31644717       1.18409997       0.24371792       0.31727606
H        1.30332280       0.15820964      -0.26510620       0.32143060      -0.97363237      -0.78922526       0.40469722
4
Properties=species:S:1:pos:R:3:mulliken:R:1:forces:R:3 smiles=OO connectivity="_JSON [[0, 1, 1.0], [0, 2, 1.0], [1, 3, 1.0]]" spin=0 method=GFN2-xTB frame_kind=mode energy=-246.24450455253577 pbc="F F F"
O       -0.54933398       0.44612175      -0.02290957      -0.32376604      -1.38748143      -1.37094607       0.57563679
O        0.54944220      -0.44805431      -0.01429472      -0.32196567       1.62005656       1.75360246       0.71787310
H       -1.28604819      -0.17147659       0.29613188       0.32217489       1.03706052       1.16868814      -0.59328701
H        1.28450531       0.20194767       0.29454586       0.32355683      -1.26963565      -1.55134454      -0.70022288
4
Properties=species:S:1:pos:R:3:mulliken:R:1:forces:R:3 smiles=OO connectivity="_JSON [[0, 1, 1.0], [0, 2, 1.0], [1, 3, 1.0]]" spin=0 method=GFN2-xTB frame_kind=mode energy=-246.27040275050658 pbc="F F F"
O       -0.55455831       0.45297156      -0.01641159      -0.33278299       0.87189528       0.04715877      -0.15578408
O        0.54753020      -0.45076371      -0.00769972      -0.32797873       1.31984376       1.26489671       0.19218849
H       -1.17235151      -0.22039070       0.19252912       0.33475608      -1.66214182      -0.44236609       0.24029691
H        1.28407873       0.18513561       0.19053840       0.32600564      -0.52959722      -0.86968939      -0.27670131
4
Properties=species:S:1:pos:R:3:mulliken:R:1:forces:R:3 smiles=OO connectivity="_JSON [[0, 1, 1.0], [0, 2, 1.0], [1, 3, 1.0]]" spin=0 method=GFN2-xTB frame_kind=mode energy=-246.03838527448693 pbc="F F F"
O       -0.56370113       0.45174183       0.01718466      -0.32161771      -0.52808850      -1.87564630      -0.75902009
O        0.55903159      -0.45274212       0.02596893      -0.31565716       1.77933702       2.58756211      -1.17524488
H       -1.30365189      -0.15549072      -0.34107595       0.31971607       1.37392928       1.20444126       0.73412695
H        1.37794310       0.17111220      -0.34245425       0.31755880      -2.62517780      -1.91635707       1.20013801
4
Properties=species:S:1:pos:R:3:mulliken:R:1:forces:R:3 smiles=OO connectivity="_JSON [[0, 1, 1.0], [0, 2, 1.0], [1, 3, 1.0]]" spin=0 method=GFN2-xTB frame_kind=mode energy=-246.18110324745928 pbc="F F F"
O       -0.56658718       0.45067044       0.01729393      -0.31839317      -0.41082714      -1.68520880      -0.76232090
O        0.56452084      -0.44954498       0.02604541      -0.31757489       0.89082373       1.78882680      -0.87175356
H       -1.32377686      -0.13519994      -0.34288013       0.31878667       1.53527872       1.06441664       0.73668413
H        1.35674988       0.11708128      -0.34359528       0.31718140      -2.01527531      -1.16803464       0.89739033
4
Properties=species:S:1:pos:R:3:mulliken:R:1:forces:R:3 smiles=OO connectivity="_JSON [[0, 1, 1.0], [0, 2, 1.0], [1, 3, 1.0]]" spin=0 method=GFN2-xTB frame_kind=mode energy=-246.25163394704606 pbc="F F F"
O       -0.55880819       0.45370647      -0.02615038      -0.32221990      -0.91789558      -2.20115382       0.89278601
O        0.55811103      -0.45062723      -0.01743923      -0.32564139       0.55153372       1.48122094       0.46208340
H       -1.26115470      -0.19387173       0.34660206       0.32562850       1.08117609       1.55941269      -0.83172235
H        1.27239590       0.14479899       0.34532647       0.32223279      -0.71481423      -0.83947980      -0.52314706
4
Properties=species:S:1:pos:R:3:mulliken:R:1:forces:R:3 smiles=OO connectivity="_JSON [[0, 1, 1.0], [0, 2, 1.0], [1, 3, 1.0]]" spin=0 method=GFN2-xTB frame_kind=mode energy=-246.2616935471161 pbc="F F F"
O       -0.54110652       0.43761192      -0.01225659      -0.31769401      -1.61706381       0.09023902       0.27213753
O        0.53288083      -0.42641468      -0.00391033      -0.32442361       2.30034354      -1.24084328       0.00432316
H       -1.24813351      -0.24504573       0.12908518       0.32823660       0.37220786       1.03809588      -0.17126247
H        1.37887054       0.06710461       0.12801216       0.31388103      -1.05548759       0.11250837      -0.10519822
4
Properties=species:S:1:pos:R:3:mulliken:R:1:forces:R:3 smiles=OO connectivity="_JSON [[0, 1, 1.0], [0, 2, 1.0], [1, 3, 1.0]]" spin=0 method=GFN2-xTB frame_kind=mode energy=-246.16355961838119 pbc="F F F"
O       -0.56894821       0.44784731       0.01634342      -0.31601046      -0.19631574      -1.25447487      -0.68373988
O        0.56568083      -0.44547877       0.02503410      -0.31596785       0.88865350       1.28704896      -0.75956244
H       -1.34308861      -0.11592784      -0.32760724       0.31725936       1.59056911       0.81906803       0.63059931
H        1.39512507       0.07808005      -0.32776001       0.31471894      -2.28290687      -0.85164212       0.81270302
4
Properties=species:S:1:pos:R:3:mulliken:R:1:forces:R:3 smiles=OO connectivity="_JSON [[0, 1, 1.0], [0, 2, 1.0], [1, 3, 1.0]]" spin=0 method=GFN2-xTB frame_kind=mode energy=-246.18121711025955 pbc="F F F"
O       -0.55192203       0.43719435       0.01430655      -0.31499906      -0.56526285       0.05834817      -0.49483287
O        0.54080145      -0.42696940       0.02270739      -0.31900800       2.70547690      -0.33337291      -0.36570087
H       -1.24407011      -0.18931593      -0.29289730       0.32331695       0.24070309       0.63414020       0.23146211
H        1.42075567       0.02677248      -0.29327675       0.31069012      -2.38091714      -0.35911547       0.62907163
4
Properties=species:S:1:pos:R:3:mulliken:R:1:forces:R:3 smiles=OO connectivity="_JSON [[0, 1, 1.0], [0, 2, 1.0], [1, 3, 1.0]]" spin=0 method=GFN2-xTB frame_kind=mode energy=-246.27435755563735 pbc="F F F"
O       -0.58094116       0.46343636      -0.00355733      -0.32043170       1.24093568      -1.29483942      -0.00227772
O        0.58224391      -0.46045324       0.00539226      -0.32599153      -2.97311463      -0.15866116       0.02422030
H       -1.35143238      -0.14263374      -0.01395745       0.32404723       0.70233735       0.24327783       0.01166746
H        1.33093073       0.09505723      -0.01439597       0.32237600       1.02984160       1.21022274      -0.03361004
4
Properties=species:S:1:pos:R:3:mulliken:R:1:forces:R:3 smiles=OO connectivity="_JSON [[0, 1, 1.0], [0, 2, 1.0], [1, 3, 1.0]]" spin=0 method=GFN2-xTB frame_kind=mode energy=-246.17807307471136 pbc="F F F"
O       -0.56323635       0.45759458      -0.02555990      -0.32879726       0.04979037      -1.89565678       0.53021533
O        0.55753367      -0.45720318      -0.01675202      -0.32413297       1.47363152       2.65295175       0.86276332
H       -1.21164881      -0.19607654       0.33669208       0.32909432       0.10610889       1.01090219      -0.43582031
H        1.30233814       0.18966445       0.33497609       0.32383590      -1.62953078      -1.76819716      -0.95715834
4
Properties=species:S:1:pos:R:3:mulliken:R:1:forces:R:3 smiles=OO connectivity="_JSON [[0, 1, 1.0], [0, 2, 1.0], [1, 3, 1.0]]" spin=0 method=GFN2-xTB frame_kind=mode energy=-246.30130486961565 pbc="F F F"
O       -0.57512754       0.45541930      -0.00968790      -0.32533421       1.80096381      -0.17452423      -0.05240444
O        0.57521232      -0.45995044      -0.00083119      -0.31905340      -0.54745132       1.46587802       0.13012448
H       -1.35093127      -0.09033888       0.08402955       0.32060211      -0.13748364      -0.63059162       0.04511081
H        1.34976010       0.16203770       0.08350947       0.32378550      -1.11602885      -0.66076217      -0.12283086
4
Properties=species:S:1:pos:R:3:mulliken:R:1:forces:R:3 smiles=OO connectivity="_JSON [[0, 1, 1.0], [0, 2, 1.0], [1, 3, 1.0]]" spin=0 method=GFN2-xTB frame_kind=mode energy=-246.27681284962912 pbc="F F F"
O       -0.54336485       0.42792060      -0.00115351      -0.32410021      -0.88615823       1.61017092       0.02029317
O        0.54810453      -0.43794320       0.00723935      -0.31407947       1.28650506      -0.16412247      -0.09769606
H       -1.39221983      -0.04052449      -0.04765021       0.31484146       0.64857216      -0.62431726       0.00276218
H        1.31716429       0.19937401      -0.04811074       0.32333821      -1.04891900      -0.82173119       0.07464071
4
Properties=species:S:1:pos:R:3:mulliken:R:1:forces:R:3 smiles=OO connectivity="_JSON [[0, 1, 1.0], [0, 2, 1.0], [1, 3, 1.0]]" spin=0 method=GFN2-xTB frame_kind=mode energy=-246.29015330851436 pbc="F F F"
O       -0.54290211       0.42995689      -0.00717068      -0.31905785       0.12043911       2.30040110      -0.07164246
O        0.53724118      -0.42555891       0.00111218      -0.32010982       1.53762388      -1.75841558       0.00296531
H       -1.28021717      -0.14721036       0.04856234       0.32258201      -1.00070995      -0.91691375       0.08076363
H        1.37024459       0.07718159       0.04824801       0.31658567      -0.65735304       0.37492823      -0.01208648
4
Properties=species:S:1:pos:R:3:mulliken:R:1:forces:R:3 smiles=OO connectivity="_JSON [[0, 1, 1.0], [0, 2, 1.0], [1, 3, 1.0]]" spin=0 method=GFN2-xTB frame_kind=mode energy=-246.19215595174757 pbc="F F F"
O       -0.55511792       0.44704176      -0.02631475      -0.32103847      -1.30837843      -1.69392087       0.81089900
O        0.55649476      -0.44956299      -0.01767555      -0.31961826       1.21883542       1.98649189       0.92231331
H       -1.31354975      -0.14230927       0.34969268       0.31908408       1.56794992       1.26393074      -0.85276152
H        1.29187084       0.18212833       0.34858854       0.32157265      -1.47840690      -1.55650176      -0.88045079
4
Properties=species:S:1:pos:R:3:mulliken:R:1:forces:R:3 smiles=OO connectivity="_JSON [[0, 1, 1.0], [0, 2, 1.0], [1, 3, 1.0]]" spin=0 method=GFN2-xTB frame_kind=mode energy=-246.20883844219347 pbc="F F F"
O       -0.54580757       0.44682831       0.00851104      -0.32561661      -1.15063410      -0.98387419      -0.40113723
O        0.53623785      -0.43961031       0.01709486      -0.32396426       2.95213015       0.92207626      -0.38231724
H       -1.20698032      -0.26321162      -0.20156799       0.33208727       0.03054010       1.24990772       0.26147286
H        1.35904969       0.14840234      -0.20371293       0.31749360      -1.83203615      -1.18810979       0.52198161
4
Properties=species:S:1:pos:R:3:mulliken:R:1:forces:R:3 smiles=OO connectivity="_JSON [[0, 1, 1.0], [0, 2, 1.0], [1, 3, 1.0]]" spin=0 method=GFN2-xTB frame_kind=mode energy=-246.2876420615425 pbc="F F F"
O       -0.56551776       0.44735245       0.01021667      -0.31658938      -0.34225281      -0.89334130      -0.41129432
O        0.56671015      -0.44536703       0.01889094      -0.32028289      -0.50393981       0.21609853      -0.13075134
H       -1.37007915      -0.11631042      -0.23031375       0.31867370       1.60074704       0.63257397       0.40374466
H        1.35132891       0.08455173      -0.23049371       0.31819857      -0.75455441       0.04466880       0.13830100
4
Properties=species:S:1:pos:R:3:mulliken:R:1:forces:R:3 smiles=OO connectivity="_JSON [[0, 1, 1.0], [0, 2, 1.0], [1, 3, 1.0]]" spin=0 method=GFN2-xTB frame_kind=mode energy=-246.2668140109455 pbc="F F F"
O       -0.55657646       0.44088093      -0.02575221      -0.31917881      -0.90693782      -0.79749978       0.53329121
O        0.55851975      -0.44456432      -0.01720927      -0.31640032       0.82072455       1.22363466       0.75144658
H       -1.33673568      -0.08841746       0.34112806       0.31624151       1.43200886       0.62792067      -0.60318804
H        1.30606569       0.14668174       0.34083927       0.31933761      -1.34579559      -1.05405554      -0.68154975
4
Properties=species:S:1:pos:R:3:mulliken:R:1:forces:R:3 smiles=OO connectivity="_JSON [[0, 1, 1.0], [0, 2, 1.0], [1, 3, 1.0]]" spin=0 method=GFN2-xTB frame_kind=mode energy=-246.24847614963227 pbc="F F F"
O       -0.57004001       0.46500097       0.00214604      -0.32956638       0.69459475      -1.78474821      -0.08648572
O        0.56774645      -0.46688957       0.01116040      -0.32483663       0.53334140       2.87308701      -0.29792982
H       -1.28521296      -0.19512960      -0.10405010       0.32691815       0.22679005       0.57821268       0.09586613
H        1.32179189       0.22486991      -0.10620408       0.32748487      -1.45472620      -1.66655148       0.28854941
4
Properties=species:S:1:pos:R:3:mulliken:R:1:forces:R:3 smiles=OO connectivity="_JSON [[0, 1, 1.0], [0, 2, 1.0], [1, 3, 1.0]]" spin=0 method=GFN2-xTB frame_kind=mode energy=-246.15855500980555 pbc="F F F"
O       -0.56178676       0.45362932      -0.02640104      -0.32130224      -0.86826043      -2.24649236       0.93547373
O        0.56056374      -0.45327769      -0.01766377      -0.32107550       1.10475250       2.26203737       0.90196517
H       -1.29561071      -0.17096314       0.35033388       0.32190606       1.47640870       1.50895920      -0.90360553
H        1.31519784       0.16518358       0.34912931       0.32047168      -1.71290078      -1.52450420      -0.93383336
4
Properties=species:S:1:pos:R:3:mulliken:R:1:forces:R:3 smiles=OO connectivity="_JSON [[0, 1, 1.0], [0, 2, 1.0], [1, 3, 1.0]]" spin=0 method=GFN2-xTB frame_kind=mode energy=-246.28008768976383 pbc="F F F"
O       -0.54523799       0.43435477       0.00170947      -0.32975135       0.33239339       1.56397994       0.20948610
O        0.55262355      -0.44799046       0.01025801      -0.31930005       0.53289173       0.60028226      -0.19594680
H       -1.34848901      -0.04187793      -0.09396304       0.31648766      -0.79431780      -1.20420278      -0.12658966
H        1.23143674       0.25807119      -0.09506165       0.33256373      -0.07096731      -0.96005942       0.11305035
4
Properties=species:S:1:pos:R:3:mulliken:R:1:forces:R:3 smiles=OO connectivity="_JSON [[0, 1, 1.0], [0, 2, 1.0], [1, 3, 1.0]]" spin=0 method=GFN2-xTB frame_kind=mode energy=-246.31798074709985 pbc="F F F"
O       -0.55095370       0.44250252      -0.00958325      -0.32068306      -1.25757501      -0.41827891       0.10937504
O        0.55830741      -0.44550307      -0.00099582      -0.32388498      -1.33572659      -0.90644015      -0.07441844
H       -1.38034438      -0.11838242       0.08466175       0.31918651       1.48080970       0.51088013      -0.14295774
H        1.26379949       0.16578783       0.08382843       0.32538152       1.11249190       0.81383893       0.10800115
4
Properties=species:S:1:pos:R:3:mulliken:R:1:forces:R:3 smiles=OO connectivity="_JSON [[0, 1, 1.0], [0, 2, 1.0], [1, 3, 1.0]]" spin=0 method=GFN2-xTB frame_kind=mode energy=-246.2070737052838 pbc="F F F"
O       -0.54997754       0.42875121       0.00141121      -0.31929462      -1.47447996       1.10514823      -0.06691926
O        0.55657164      -0.43563013       0.00980401      -0.31476814       0.13191136      -0.98574152      -0.06909890
H       -1.44766658      -0.02464043      -0.08869931       0.31432412       2.00215377      -0.17547329       0.10789581
H        1.34317779       0.13358976      -0.08839593       0.31973865      -0.65958517       0.05606659       0.02812235
4
Properties=species:S:1:pos:R:3:mulliken:R:1:forces:R:3 smiles=OO connectivity="_JSON [[0, 1, 1.0], [0, 2, 1.0], [1, 3, 1.0]]" spin=0 method=GFN2-xTB frame_kind=mode energy=-246.25411954426784 pbc="F F F"
O       -0.55273975       0.45031077      -0.01410257      -0.31765139      -1.21106201      -1.57856441       0.49790157
O        0.54665099      -0.43663517      -0.00553937      -0.32937482       0.24585604      -0.86108456      -0.18426748
H       -1.25548594      -0.27167839       0.15669755       0.33113631       0.92675845       1.76523555      -0.37080468
H        1.35230568       0.05440270       0.15550245       0.31588990       0.03844752       0.67441341       0.05717059
4
Properties=species:S:1:pos:R:3:mulliken:R:1:forces:R:3 smiles=OO connectivity="_JSON [[0, 1, 1.0], [0, 2, 1.0], [1, 3, 1.0]]" spin=0 method=GFN2-xTB frame_kind=mode energy=-246.1067619749548 pbc="F F F"
O       -0.56358458       0.45556844       0.01735106      -0.31967523      -0.79562758      -2.49070337      -1.02266955
O        0.55917075      -0.45084379       0.02615231      -0.32110424       1.41017926       2.09768634      -0.89738765
H       -1.28468944      -0.20473051      -0.34380275       0.32344233       1.49445354       1.77543399       0.92385475
H        1.35492298       0.12948472      -0.34527302       0.31733714      -2.10900521      -1.38241696       0.99620246
4
Properties=species:S:1:pos:R:3:mulliken:R:1:forces:R:3 smiles=OO connectivity="_JSON [[0, 1, 1.0], [0, 2, 1.0], [1, 3, 1.0]]" spin=0 method=GFN2-xTB frame_kind=mode energy=-246.28701248821125 pbc="F F F"
O       -0.54785544       0.44418231       0.00703888      -0.33021000      -0.04569654       0.34771524       0.23584935
O        0.55579231      -0.45285396       0.01572986      -0.32834981      -0.54681358       0.28229600      -0.05217905
H       -1.29633545      -0.10794537      -0.17930829       0.32165392      -0.64351043      -0.55579787      -0.10375842
H        1.17053369       0.24534175      -0.18098764       0.33690589       1.23602054      -0.07421336      -0.07991189
4
Properties=species:S:1:pos:R:3:mulliken:R:1:forces:R:3 smiles=OO connectivity="_JSON [[0, 1, 1.0], [0, 2, 1.0], [1, 3, 1.0]]" spin=0 method=GFN2-xTB frame_kind=mode energy=-246.3463663582725 pbc="F F F"
O       -0.54129127       0.43569937      -0.00796272      -0.32273178      -0.33718279       1.34672270      -0.03954271
O        0.53714906      -0.43278248       0.00043351      -0.32249856       1.44764379      -0.96944064       0.01161788
H       -1.25887128      -0.17953491       0.06063373       0.32529314      -0.81891627      -0.41969051       0.04966920
H        1.32479303       0.13301527       0.05949690       0.31993720      -0.29154473       0.04240844      -0.02174437
4
Properties=species:S:1:pos:R:3:mulliken:R:1:forces:R:3 smiles=OO connectivity="_JSON [[0, 1, 1.0], [0, 2, 1.0], [1, 3, 1.0]]" spin=0 method=GFN2-xTB frame_kind=mode energy=-246.24860859098953 pbc="F F F"
O       -0.57404255       0.45754993      -0.01319537      -0.32039548       1.40468212      -0.64466210       0.04615900
O        0.57498848      -0.45335028      -0.00438549      -0.32732773      -3.81763555      -1.39316352      -0.52568141
H       -1.31070242      -0.14226451       0.13987838       0.32520431      -0.01338846      -0.13370696      -0.01630866
H        1.29586441       0.07539169       0.13963808       0.32251890       2.42634189       2.17153258       0.49583107
4
Properties=species:S:1:pos:R:3:mulliken:R:1:forces:R:3 smiles=OO connectivity="_JSON [[0, 1, 1.0], [0, 2, 1.0], [1, 3, 1.0]]" spin=0 method=GFN2-xTB frame_kind=mode energy=-246.2343257431219 pbc="F F F"
O       -0.55069794       0.45321693       0.01569284      -0.32828077      -1.37450980      -1.98173046      -0.58332778
O        0.55332221      -0.45368484       0.02448474      -0.33011421       0.70676446       1.68584744      -0.48736690
H       -1.24419550      -0.20399360      -0.31701997       0.32758483       0.68540823       1.41695400       0.63558760
H        1.20271794       0.21116740      -0.31932091       0.33081015      -0.01766289      -1.12107097       0.43510707
4
Properties=species:S:1:pos:R:3:mulliken:R:1:forces:R:3 smiles=OO connectivity="_JSON [[0, 1, 1.0], [0, 2, 1.0], [1, 3, 1.0]]" spin=0 method=GFN2-xTB frame_kind=mode energy=-246.32641886564875 pbc="F F F"
O       -0.56229732       0.44428177      -0.01299674      -0.32571133       2.00987577       1.15954530      -0.33743695
O        0.56418025      -0.44981613      -0.00434946      -0.32000217      -1.00240507      -0.00126435       0.01801384
H       -1.31983386      -0.06990849       0.13806261       0.32048032      -1.27789920      -1.38808292       0.29615157
H        1.29012178       0.15753506       0.13773144       0.32523318       0.27042850       0.22980197       0.02327155
4
Properties=species:S:1:pos:R:3:mulliken:R:1:forces:R:3 smiles=OO connectivity="_JSON [[0, 1, 1.0], [0, 2, 1.0], [1, 3, 1.0]]" spin=0 method=GFN2-xTB frame_kind=mode energy=-246.29399702045484 pbc="F F F"
O       -0.54992918       0.43329006       0.01069352      -0.32005426      -0.04795785       1.03567919       0.05905747
O        0.54627161      -0.43428305       0.01912228      -0.31503435       1.83290692       0.08860884      -0.43826930
H       -1.30693151      -0.10277402      -0.23582007       0.31823958      -0.04057813      -0.38809714      -0.07873028
H        1.36516058       0.11828839      -0.23621736       0.31684903      -1.74437094      -0.73619089       0.45794210
4
Properties=species:S:1:pos:R:3:mulliken:R:1:forces:R:3 smiles=OO connectivity="_JSON [[0, 1, 1.0], [0, 2, 1.0], [1, 3, 1.0]]" spin=0 method=GFN2-xTB frame_kind=mode energy=-246.26118672105008 pbc="F F F"
O       -0.58311622       0.46887746      -0.00200876      -0.32961078       2.26096308      -0.97340151       0.04297583
O        0.58593828      -0.47472871       0.00712336      -0.32474841      -1.56309915       2.16378268      -0.07106043
H       -1.32673705      -0.11834559      -0.03952106       0.32378794      -0.48799728      -0.57741663      -0.01643216
H        1.28211892       0.21098734      -0.04083838       0.33057124      -0.20986665      -0.61296455       0.04451675
4
Properties=species:S:1:pos:R:3:mulliken:R:1:forces:R:3 smiles=OO connectivity="_JSON [[0, 1, 1.0], [0, 2, 1.0], [1, 3, 1.0]]" spin=0 method=GFN2-xTB frame_kind=mode energy=-246.09293220296382 pbc="F F F"
O       -0.53817317       0.45618703      -0.00450393      -0.33426673      -2.60847264      -2.22857883       0.02188710
O        0.54670233      -0.45833263       0.00431247      -0.34340952       0.16839193       0.65940667      -0.00598691
H       -1.25492153      -0.26374853       0.00364206       0.33252760       0.60592386       1.76785938      -0.02012319
H        1.11971985       0.29757749       0.00013526       0.34514865       1.83415684      -0.19868722       0.00422301
4
Properties=species:S:1:pos:R:3:mulliken:R:1:forces:R:3 smiles=OO connectivity="_JSON [[0, 1, 1.0], [0, 2, 1.0], [1, 3, 1.0]]" spin=0 method=GFN2-xTB frame_kind=mode energy=-246.24170230625074 pbc="F F F"
O       -0.55865901       0.45944701      -0.01637538      -0.32819939      -0.82177957      -2.22093968       0.38158955
O        0.56151669      -0.46257076      -0.00748880      -0.32785402       0.49349145       2.48277923       0.41263566
H       -1.30135023      -0.19680750       0.19070369       0.32550584       1.04249545       1.28749426      -0.41178201
H        1.25616702       0.24617690       0.18844419       0.33054758      -0.71420733      -1.54933381      -0.38244320
4
Properties=species:S:1:pos:R:3:mulliken:R:1:forces:R:3 smiles=OO connectivity="_JSON [[0, 1, 1.0], [0, 2, 1.0], [1, 3, 1.0]]" spin=0 method=GFN2-xTB frame_kind=mode energy=-246.21229597722748 pbc="F F F"
O       -0.53918808       0.42539874      -0.01280737      -0.32162538      -1.39468126       1.58900449      -0.03798572
O        0.53946957      -0.43259229      -0.00451118      -0.31186745       2.66799215      -0.00660419       0.38077728
H       -1.36630016      -0.07243399       0.13794605       0.31466528       0.75274717      -0.30640309      -0.02648103
H        1.36200625       0.18639533       0.13740926       0.31882756      -2.02605805      -1.27599721      -0.31631053
4
Properties=species:S:1:pos:R:3:mulliken:R:1:forces:R:3 smiles=OO connectivity="_JSON [[0, 1, 1.0], [0, 2, 1.0], [1, 3, 1.0]]" spin=0 method=GFN2-xTB frame_kind=mode energy=-246.25814359784212 pbc="F F F"
O       -0.53715924       0.42456516      -0.02444340      -0.32016633      -2.31834168       0.80232305       0.11384440
O        0.54710962      -0.43303696      -0.01616514      -0.31771955       0.06812549      -1.07773570       0.03758988
H       -1.35622420      -0.03490875       0.32236565       0.31279104       1.31446889       0.08253301      -0.39260639
H        1.19846331       0.16917426       0.32229104       0.32509484       0.93574730       0.19287963       0.24117211
4
Properties=species:S:1:pos:R:3:mulliken:R:1:forces:R:3 smiles=OO connectivity="_JSON [[0, 1, 1.0], [0, 2, 1.0], [1, 3, 1.0]]" spin=0 method=GFN2-xTB frame_kind=conformer energy=-245.81123206261702 pbc="F F F"
O       -0.65072098       0.43348170       0.12142577      -0.29644172      -4.93386206      -0.52622265       1.43419978
O        0.63257194       0.44492229      -0.12054260      -0.29611089       5.28844358      -0.80643186      -1.33967721
H       -1.04726814      -0.44333674      -0.07393770       0.29701238       0.26257143       0.41927874      -0.27469039
H        1.06541718      -0.43506725       0.07305453       0.29554023      -0.61715294       0.91337577       0.18016782
4
Properties=species:S:1:pos:R:3:mulliken:R:1:forces:R:3 smiles=OO connectivity="_JSON [[0, 1, 1.0], [0, 2, 1.0], [1, 3, 1.0]]" spin=0 method=GFN2-xTB frame_kind=conformer energy=-245.81123206261702 pbc="F F F"
O       -0.65072098       0.43348170       0.12142577      -0.29644172      -4.93386206      -0.52622265       1.43419978
O        0.63257194       0.44492229      -0.12054260      -0.29611089       5.28844358      -0.80643186      -1.33967721
H       -1.04726814      -0.44333674      -0.07393770       0.29701238       0.26257143       0.41927874      -0.27469039
H        1.06541718      -0.43506725       0.07305453       0.29554023      -0.61715294       0.91337577       0.18016782
4
Properties=species:S:1:pos:R:3:mulliken:R:1:forces:R:3 smiles=OO connectivity="_JSON [[0, 1, 1.0], [0, 2, 1.0], [1, 3, 1.0]]" spin=0 method=GFN2-xTB frame_kind=conformer energy=-245.81123206261702 pbc="F F F"
O       -0.65072098       0.43348170       0.12142577      -0.29644172      -4.93386206      -0.52622265       1.43419978
O        0.63257194       0.44492229      -0.12054260      -0.29611089       5.28844358      -0.80643186      -1.33967721
H       -1.04726814      -0.44333674      -0.07393770       0.29701238       0.26257143       0.41927874      -0.27469039
H        1.06541718      -0.43506725       0.07305453       0.29554023      -0.61715294       0.91337577       0.18016782
4
Properties=species:S:1:pos:R:3:mulliken:R:1:forces:R:3 smiles=OO connectivity="_JSON [[0, 1, 1.0], [0, 2, 1.0], [1, 3, 1.0]]" spin=0 method=GFN2-xTB frame_kind=conformer energy=-245.81123206261702 pbc="F F F"
O       -0.65072098       0.43348170       0.12142577      -0.29644172      -4.93386206      -0.52622265       1.43419978
O        0.63257194       0.44492229      -0.12054260      -0.29611089       5.28844358      -0.80643186      -1.33967721
H       -1.04726814      -0.44333674      -0.07393770       0.29701238       0.26257143       0.41927874      -0.27469039
H        1.06541718      -0.43506725       0.07305453       0.29554023      -0.61715294       0.91337577       0.18016782
4
Properties=species:S:1:pos:R:3:mulliken:R:1:forces:R:3 smiles=OO connectivity="_JSON [[0, 1, 1.0], [0, 2, 1.0], [1, 3, 1.0]]" spin=0 method=GFN2-xTB frame_kind=conformer energy=-245.81123206261702 pbc="F F F"
O       -0.65072098       0.43348170       0.12142577      -0.29644172      -4.93386206      -0.52622265       1.43419978
O        0.63257194       0.44492229      -0.12054260      -0.29611089       5.28844358      -0.80643186      -1.33967721
H       -1.04726814      -0.44333674      -0.07393770       0.29701238       0.26257143       0.41927874      -0.27469039
H        1.06541718      -0.43506725       0.07305453       0.29554023      -0.61715294       0.91337577       0.18016782
4
Properties=species:S:1:pos:R:3:mulliken:R:1:forces:R:3 smiles=OO connectivity="_JSON [[0, 1, 1.0], [0, 2, 1.0], [1, 3, 1.0]]" spin=0 method=GFN2-xTB frame_kind=conformer energy=-245.81123206261702 pbc="F F F"
O       -0.65072098       0.43348170       0.12142577      -0.29644172      -4.93386206      -0.52622265       1.43419978
O        0.63257194       0.44492229      -0.12054260      -0.29611089       5.28844358      -0.80643186      -1.33967721
H       -1.04726814      -0.44333674      -0.07393770       0.29701238       0.26257143       0.41927874      -0.27469039
H        1.06541718      -0.43506725       0.07305453       0.29554023      -0.61715294       0.91337577       0.18016782
4
Properties=species:S:1:pos:R:3:mulliken:R:1:forces:R:3 smiles=OO connectivity="_JSON [[0, 1, 1.0], [0, 2, 1.0], [1, 3, 1.0]]" spin=0 method=GFN2-xTB frame_kind=conformer energy=-245.81123206261702 pbc="F F F"
O       -0.65072098       0.43348170       0.12142577      -0.29644172      -4.93386206      -0.52622265       1.43419978
O        0.63257194       0.44492229      -0.12054260      -0.29611089       5.28844358      -0.80643186      -1.33967721
H       -1.04726814      -0.44333674      -0.07393770       0.29701238       0.26257143       0.41927874      -0.27469039
H        1.06541718      -0.43506725       0.07305453       0.29554023      -0.61715294       0.91337577       0.18016782
4
Properties=species:S:1:pos:R:3:mulliken:R:1:forces:R:3 smiles=OO connectivity="_JSON [[0, 1, 1.0], [0, 2, 1.0], [1, 3, 1.0]]" spin=0 method=GFN2-xTB frame_kind=conformer energy=-245.81123206261702 pbc="F F F"
O       -0.65072098       0.43348170       0.12142577      -0.29644172      -4.93386206      -0.52622265       1.43419978
O        0.63257194       0.44492229      -0.12054260      -0.29611089       5.28844358      -0.80643186      -1.33967721
H       -1.04726814      -0.44333674      -0.07393770       0.29701238       0.26257143       0.41927874      -0.27469039
H        1.06541718      -0.43506725       0.07305453       0.29554023      -0.61715294       0.91337577       0.18016782
4
Properties=species:S:1:pos:R:3:mulliken:R:1:forces:R:3 smiles=OO connectivity="_JSON [[0, 1, 1.0], [0, 2, 1.0], [1, 3, 1.0]]" spin=0 method=GFN2-xTB frame_kind=conformer energy=-245.81123206261702 pbc="F F F"
O       -0.65072098       0.43348170       0.12142577      -0.29644172      -4.93386206      -0.52622265       1.43419978
O        0.63257194       0.44492229      -0.12054260      -0.29611089       5.28844358      -0.80643186      -1.33967721
H       -1.04726814      -0.44333674      -0.07393770       0.29701238       0.26257143       0.41927874      -0.27469039
H        1.06541718      -0.43506725       0.07305453       0.29554023      -0.61715294       0.91337577       0.18016782
4
Properties=species:S:1:pos:R:3:mulliken:R:1:forces:R:3 smiles=OO connectivity="_JSON [[0, 1, 1.0], [0, 2, 1.0], [1, 3, 1.0]]" spin=0 method=GFN2-xTB frame_kind=conformer energy=-245.81123206261702 pbc="F F F"
O       -0.65072098       0.43348170       0.12142577      -0.29644172      -4.93386206      -0.52622265       1.43419978
O        0.63257194       0.44492229      -0.12054260      -0.29611089       5.28844358      -0.80643186      -1.33967721
H       -1.04726814      -0.44333674      -0.07393770       0.29701238       0.26257143       0.41927874      -0.27469039
H        1.06541718      -0.43506725       0.07305453       0.29554023      -0.61715294       0.91337577       0.18016782
4
Properties=species:S:1:pos:R:3:mulliken:R:1:forces:R:3 smiles=OO connectivity="_JSON [[0, 1, 1.0], [0, 2, 1.0], [1, 3, 1.0]]" spin=0 method=GFN2-xTB frame_kind=conformer energy=-245.81123206261702 pbc="F F F"
O       -0.65072098       0.43348170       0.12142577      -0.29644172      -4.93386206      -0.52622265       1.43419978
O        0.63257194       0.44492229      -0.12054260      -0.29611089       5.28844358      -0.80643186      -1.33967721
H       -1.04726814      -0.44333674      -0.07393770       0.29701238       0.26257143       0.41927874      -0.27469039
H        1.06541718      -0.43506725       0.07305453       0.29554023      -0.61715294       0.91337577       0.18016782
4
Properties=species:S:1:pos:R:3:mulliken:R:1:forces:R:3 smiles=OO connectivity="_JSON [[0, 1, 1.0], [0, 2, 1.0], [1, 3, 1.0]]" spin=0 method=GFN2-xTB frame_kind=conformer energy=-245.81123206261702 pbc="F F F"
O       -0.65072098       0.43348170       0.12142577      -0.29644172      -4.93386206      -0.52622265       1.43419978
O        0.63257194       0.44492229      -0.12054260      -0.29611089       5.28844358      -0.80643186      -1.33967721
H       -1.04726814      -0.44333674      -0.07393770       0.29701238       0.26257143       0.41927874      -0.27469039
H        1.06541718      -0.43506725       0.07305453       0.29554023      -0.61715294       0.91337577       0.18016782
4
Properties=species:S:1:pos:R:3:mulliken:R:1:forces:R:3 smiles=OO connectivity="_JSON [[0, 1, 1.0], [0, 2, 1.0], [1, 3, 1.0]]" spin=0 method=GFN2-xTB frame_kind=conformer energy=-245.81123206261702 pbc="F F F"
O       -0.65072098       0.43348170       0.12142577      -0.29644172      -4.93386206      -0.52622265       1.43419978
O        0.63257194       0.44492229      -0.12054260      -0.29611089       5.28844358      -0.80643186      -1.33967721
H       -1.04726814      -0.44333674      -0.07393770       0.29701238       0.26257143       0.41927874      -0.27469039
H        1.06541718      -0.43506725       0.07305453       0.29554023      -0.61715294       0.91337577       0.18016782
4
Properties=species:S:1:pos:R:3:mulliken:R:1:forces:R:3 smiles=OO connectivity="_JSON [[0, 1, 1.0], [0, 2, 1.0], [1, 3, 1.0]]" spin=0 method=GFN2-xTB frame_kind=conformer energy=-245.81123206261702 pbc="F F F"
O       -0.65072098       0.43348170       0.12142577      -0.29644172      -4.93386206      -0.52622265       1.43419978
O        0.63257194       0.44492229      -0.12054260      -0.29611089       5.28844358      -0.80643186      -1.33967721
H       -1.04726814      -0.44333674      -0.07393770       0.29701238       0.26257143       0.41927874      -0.27469039
H        1.06541718      -0.43506725       0.07305453       0.29554023      -0.61715294       0.91337577       0.18016782
4
Properties=species:S:1:pos:R:3:mulliken:R:1:forces:R:3 smiles=OO connectivity="_JSON [[0, 1, 1.0], [0, 2, 1.0], [1, 3, 1.0]]" spin=0 method=GFN2-xTB frame_kind=conformer energy=-245.81123206261702 pbc="F F F"
O       -0.65072098       0.43348170       0.12142577      -0.29644172      -4.93386206      -0.52622265       1.43419978
O        0.63257194       0.44492229      -0.12054260      -0.29611089       5.28844358      -0.80643186      -1.33967721
H       -1.04726814      -0.44333674      -0.07393770       0.29701238       0.26257143       0.41927874      -0.27469039
H        1.06541718      -0.43506725       0.07305453       0.29554023      -0.61715294       0.91337577       0.18016782
4
Properties=species:S:1:pos:R:3:mulliken:R:1:forces:R:3 smiles=OO connectivity="_JSON [[0, 1, 1.0], [0, 2, 1.0], [1, 3, 1.0]]" spin=0 method=GFN2-xTB frame_kind=conformer energy=-245.81123206261702 pbc="F F F"
O       -0.65072098       0.43348170       0.12142577      -0.29644172      -4.93386206      -0.52622265       1.43419978
O        0.63257194       0.44492229      -0.12054260      -0.29611089       5.28844358      -0.80643186      -1.33967721
H       -1.04726814      -0.44333674      -0.07393770       0.29701238       0.26257143       0.41927874      -0.27469039
H        1.06541718      -0.43506725       0.07305453       0.29554023      -0.61715294       0.91337577       0.18016782
4
Properties=species:S:1:pos:R:3:mulliken:R:1:forces:R:3 smiles=OO connectivity="_JSON [[0, 1, 1.0], [0, 2, 1.0], [1, 3, 1.0]]" spin=0 method=GFN2-xTB frame_kind=conformer energy=-245.81123206261702 pbc="F F F"
O       -0.65072098       0.43348170       0.12142577      -0.29644172      -4.93386206      -0.52622265       1.43419978
O        0.63257194       0.44492229      -0.12054260      -0.29611089       5.28844358      -0.80643186      -1.33967721
H       -1.04726814      -0.44333674      -0.07393770       0.29701238       0.26257143       0.41927874      -0.27469039
H        1.06541718      -0.43506725       0.07305453       0.29554023      -0.61715294       0.91337577       0.18016782
4
Properties=species:S:1:pos:R:3:mulliken:R:1:forces:R:3 smiles=OO connectivity="_JSON [[0, 1, 1.0], [0, 2, 1.0], [1, 3, 1.0]]" spin=0 method=GFN2-xTB frame_kind=conformer energy=-245.81123206261702 pbc="F F F"
O       -0.65072098       0.43348170       0.12142577      -0.29644172      -4.93386206      -0.52622265       1.43419978
O        0.63257194       0.44492229      -0.12054260      -0.29611089       5.28844358      -0.80643186      -1.33967721
H       -1.04726814      -0.44333674      -0.07393770       0.29701238       0.26257143       0.41927874      -0.27469039
H        1.06541718      -0.43506725       0.07305453       0.29554023      -0.61715294       0.91337577       0.18016782
4
Properties=species:S:1:pos:R:3:mulliken:R:1:forces:R:3 smiles=OO connectivity="_JSON [[0, 1, 1.0], [0, 2, 1.0], [1, 3, 1.0]]" spin=0 method=GFN2-xTB frame_kind=conformer energy=-245.81123206261702 pbc="F F F"
O       -0.65072098       0.43348170       0.12142577      -0.29644172      -4.93386206      -0.52622265       1.43419978
O        0.63257194       0.44492229      -0.12054260      -0.29611089       5.28844358      -0.80643186      -1.33967721
H       -1.04726814      -0.44333674      -0.07393770       0.29701238       0.26257143       0.41927874      -0.27469039
H        1.06541718      -0.43506725       0.07305453       0.29554023      -0.61715294       0.91337577       0.18016782
4
Properties=species:S:1:pos:R:3:mulliken:R:1:forces:R:3 smiles=OO connectivity="_JSON [[0, 1, 1.0], [0, 2, 1.0], [1, 3, 1.0]]" spin=0 method=GFN2-xTB frame_kind=conformer energy=-245.81123206261702 pbc="F F F"
O       -0.65072098       0.43348170       0.12142577      -0.29644172      -4.93386206      -0.52622265       1.43419978
O        0.63257194       0.44492229      -0.12054260      -0.29611089       5.28844358      -0.80643186      -1.33967721
H       -1.04726814      -0.44333674      -0.07393770       0.29701238       0.26257143       0.41927874      -0.27469039
H        1.06541718      -0.43506725       0.07305453       0.29554023      -0.61715294       0.91337577       0.18016782
4
Properties=species:S:1:pos:R:3:mulliken:R:1:forces:R:3 smiles=OO connectivity="_JSON [[0, 1, 1.0], [0, 2, 1.0], [1, 3, 1.0]]" spin=0 method=GFN2-xTB frame_kind=torsion energy=-246.02381540394515 pbc="F F F"
O       -0.56097190       0.43767575      -0.00422112      -0.30762836       0.01655524       0.00307312      -0.00001630
O        0.54653626      -0.45556562       0.00441983      -0.30763027      -0.00023044       0.01684357      -0.00014932
H       -1.36043464      -0.10108882       0.00002325       0.30762963      -0.00811010      -0.01003816       0.00008355
H        0.18925665      -1.35095539       0.01211409       0.30762899      -0.00821471      -0.00987852       0.00008207
4
Properties=species:S:1:pos:R:3:mulliken:R:1:forces:R:3 smiles=OO connectivity="_JSON [[0, 1, 1.0], [0, 2, 1.0], [1, 3, 1.0]]" spin=0 method=GFN2-xTB frame_kind=torsion energy=-246.03912799082553 pbc="F F F"
O       -0.56053158       0.43701818       0.00065799      -0.30769210       0.03978268       0.03074837      -0.17194674
O        0.54680151      -0.45405634      -0.00334305      -0.30769464      -0.00558247       0.01132202       0.17872325
H       -1.35707954      -0.10537027       0.00742076       0.30769380      -0.04186871      -0.02167463       0.12465477
H        0.20563932      -1.32454372      -0.23697547       0.30769294       0.00766850      -0.02039576      -0.13143128
4
Properties=species:S:1:pos:R:3:mulliken:R:1:forces:R:3 smiles=OO connectivity="_JSON [[0, 1, 1.0], [0, 2, 1.0], [1, 3, 1.0]]" spin=0 method=GFN2-xTB frame_kind=torsion energy=-246.0812334171076 pbc="F F F"
O       -0.55902687       0.43579574       0.00440435      -0.30753996       0.00452246       0.02647572      -0.29556718
O        0.54791458      -0.44961401      -0.00897971      -0.30754155      -0.06726618      -0.10479995       0.26936050
H       -1.35379357      -0.11303911       0.01301151       0.30754109       0.00114201      -0.00439719       0.21564886
H        0.25930892      -1.24843714      -0.46891469       0.30754042       0.06160171       0.08272142      -0.18944218
4
Properties=species:S:1:pos:R:3:mulliken:R:1:forces:R:3 smiles=OO connectivity="_JSON [[0, 1, 1.0], [0, 2, 1.0], [1, 3, 1.0]]" spin=0 method=GFN2-xTB frame_kind=torsion energy=-246.13937230614152 pbc="F F F"
O       -0.55737709       0.43430072       0.00611057      -0.30779059       0.01178246       0.03347817      -0.33866090
O        0.54916535      -0.44453371      -0.01139189      -0.30779164      -0.12357683      -0.17298798       0.26594937
H       -1.34759221      -0.12376964       0.01546565       0.30779139       0.00432889      -0.00240975       0.25409611
H        0.34474094      -1.12597767      -0.66699667       0.30779084       0.10746549       0.14191957      -0.18138458
4
Properties=species:S:1:pos:R:3:mulliken:R:1:forces:R:3 smiles=OO connectivity="_JSON [[0, 1, 1.0], [0, 2, 1.0], [1, 3, 1.0]]" spin=0 method=GFN2-xTB frame_kind=torsion energy=-246.2005648851307 pbc="F F F"
O       -0.55575454       0.43278616       0.00611480      -0.30855866       0.00628153       0.04777073      -0.31158209
O        0.54996383      -0.44001675      -0.01132827      -0.30855963      -0.13459829      -0.20818426       0.19473531
H       -1.34164952      -0.13350744       0.01540712       0.30855946       0.00347499      -0.00442237       0.24124298
H        0.45925285      -0.96835025      -0.81820096       0.30855884       0.12484177       0.16483589      -0.12439619
4
Properties=species:S:1:pos:R:3:mulliken:R:1:forces:R:3 smiles=OO connectivity="_JSON [[0, 1, 1.0], [0, 2, 1.0], [1, 3, 1.0]]" spin=0 method=GFN2-xTB frame_kind=torsion energy=-246.2543652590775 pbc="F F F"
O       -0.55482862       0.43216378       0.00503480      -0.31012247       0.00668098       0.04322502      -0.24368135
O        0.55093662      -0.43703565      -0.00969991      -0.31012325      -0.12285310      -0.18878338       0.10267424
H       -1.33611105      -0.14157833       0.01377368       0.31012316       0.00196468      -0.00409977       0.19609884
H        0.59476222      -0.78632372      -0.91288190       0.31012256       0.11420744       0.14965814      -0.05509173
4
Properties=species:S:1:pos:R:3:mulliken:R:1:forces:R:3 smiles=OO connectivity="_JSON [[0, 1, 1.0], [0, 2, 1.0], [1, 3, 1.0]]" spin=0 method=GFN2-xTB frame_kind=torsion energy=-246.2959118377028 pbc="F F F"
O       -0.55458873       0.43263013       0.00331661      -0.31244062       0.00617326       0.03170487      -0.17115392
O        0.55209410      -0.43576275      -0.00721363      -0.31244119      -0.09464568      -0.14287366       0.03089996
H       -1.33071045      -0.14794127       0.01125208       0.31244117       0.00117573      -0.00295559       0.14368868
H        0.74129436      -0.59191160      -0.94493059       0.31244064       0.08729670       0.11412438      -0.00343472
4
Properties=species:S:1:pos:R:3:mulliken:R:1:forces:R:3 smiles=OO connectivity="_JSON [[0, 1, 1.0], [0, 2, 1.0], [1, 3, 1.0]]" spin=0 method=GFN2-xTB frame_kind=torsion energy=-246.3257738884316 pbc="F F F"
O       -0.55469130       0.43432210       0.00122997      -0.31524311       0.00457038       0.02033391      -0.11628033
O        0.55323169      -0.43616303      -0.00419519      -0.31524346      -0.06578776      -0.09753812      -0.01041554
H       -1.32495998      -0.15291309       0.00824656       0.31524349       0.00110029      -0.00148782       0.10203468
H        0.88779579      -0.39787480      -0.91238556       0.31524309       0.06011709       0.07869203       0.02466119
4
Properties=species:S:1:pos:R:3:mulliken:R:1:forces:R:3 smiles=OO connectivity="_JSON [[0, 1, 1.0], [0, 2, 1.0], [1, 3, 1.0]]" spin=0 method=GFN2-xTB frame_kind=torsion energy=-246.34742267374344 pbc="F F F"
O       -0.55434602       0.43669974      -0.00093779      -0.31805806      -0.01697865       0.04035149      -0.08261527
O        0.55357664      -0.43767631      -0.00112855      -0.31805826      -0.02096212      -0.08844651      -0.02190221
H       -1.31848039      -0.15663333       0.00520158       0.31805829      -0.00828777      -0.00646231       0.07619314
H        1.02344375      -0.21704108      -0.81754032       0.31805802       0.04622853       0.05455733       0.02832434
4
Properties=species:S:1:pos:R:3:mulliken:R:1:forces:R:3 smiles=OO connectivity="_JSON [[0, 1, 1.0], [0, 2, 1.0], [1, 3, 1.0]]" spin=0 method=GFN2-xTB frame_kind=torsion energy=-246.3643082822598 pbc="F F F"
O       -0.55422186       0.44004407      -0.00263843      -0.32055199      -0.00701243       0.02255534      -0.06429887
O        0.55393517      -0.44041335       0.00158456      -0.32055201      -0.01887805      -0.05562209      -0.03524317
H       -1.31268188      -0.15923755       0.00282526       0.32055201      -0.00444609      -0.00395232       0.06109938
H        1.13979427      -0.06155359      -0.66749257       0.32055199       0.03033658       0.03701908       0.03844266
4
Properties=species:S:1:pos:R:3:mulliken:R:1:forces:R:3 smiles=OO connectivity="_JSON [[0, 1, 1.0], [0, 2, 1.0], [1, 3, 1.0]]" spin=0 method=GFN2-xTB frame_kind=torsion energy=-246.37746629695928 pbc="F F F"
O       -0.55237530       0.44463887      -0.00418743      -0.32276091      -0.01823482      -0.01611689      -0.03721987
O        0.55235798      -0.44468790       0.00407045      -0.32276012       0.00443656      -0.00152081      -0.04426329
H       -1.30388836      -0.16169803       0.00073638       0.32275952      -0.04370857       0.01157834       0.04863437
H        1.22479601       0.05910006      -0.47181238       0.32276152       0.05750682       0.00605936       0.03284879
4
Properties=species:S:1:pos:R:3:mulliken:R:1:forces:R:3 smiles=OO connectivity="_JSON [[0, 1, 1.0], [0, 2, 1.0], [1, 3, 1.0]]" spin=0 method=GFN2-xTB frame_kind=torsion energy=-246.38679183769642 pbc="F F F"
O       -0.55298763       0.44598750      -0.00428946      -0.32362503       0.01063978      -0.02532475      -0.02424671
O        0.55299942      -0.44600276       0.00433940      -0.32362402      -0.01493643       0.01976873      -0.02721596
H       -1.30320383      -0.16201528       0.00060056       0.32362332      -0.01233157       0.00634759       0.02651592
H        1.28315370       0.13482369      -0.24472631       0.32362574       0.01662822      -0.00079156       0.02494674
4
Properties=species:S:1:pos:R:3:mulliken:R:1:forces:R:3 smiles=OO connectivity="_JSON [[0, 1, 1.0], [0, 2, 1.0], [1, 3, 1.0]]" spin=0 method=GFN2-xTB frame_kind=torsion energy=-246.390113510815 pbc="F F F"
O       -0.55298763       0.44598750      -0.00428946      -0.32383459      -0.00026661      -0.00016691       0.00000130
O        0.55299942      -0.44600276       0.00433940      -0.32383360       0.00019398       0.00034395      -0.00000292
H       -1.30320383      -0.16201528       0.00060056       0.32383288       0.00029422       0.00013004      -0.00000096
H        1.30319198       0.16203143      -0.00055092       0.32383531      -0.00022159      -0.00030709       0.00000257
4
Properties=species:S:1:pos:R:3:mulliken:R:1:forces:R:3 smiles=OO connectivity="_JSON [[0, 1, 1.0], [0, 2, 1.0], [1, 3, 1.0]]" spin=0 method=GFN2-xTB frame_kind=torsion energy=-246.38679183769642 pbc="F F F"
O       -0.55298763       0.44598750      -0.00428946      -0.32362503       0.01060750      -0.02489121       0.02470544
O        0.55299942      -0.44600276       0.00433940      -0.32362403      -0.01497207       0.02024747       0.02684185
H       -1.30320383      -0.16201528       0.00060056       0.32362332      -0.01229653       0.00587682      -0.02664042
H        1.28283146       0.13915235       0.24404143       0.32362574       0.01666109      -0.00123308      -0.02490687
4
Properties=species:S:1:pos:R:3:mulliken:R:1:forces:R:3 smiles=OO connectivity="_JSON [[0, 1, 1.0], [0, 2, 1.0], [1, 3, 1.0]]" spin=0 method=GFN2-xTB frame_kind=torsion energy=-246.37746629695943 pbc="F F F"
O       -0.55237518       0.44463728      -0.00436679      -0.32276091      -0.01828406      -0.01545537       0.03747541
O        0.55235765      -0.44468335       0.00458418      -0.32276013       0.00437818      -0.00073657       0.04428910
H       -1.30388818      -0.16170050       0.00045824       0.32275952      -0.04364427       0.01071464      -0.04888940
H        1.22417353       0.06746187       0.47235589       0.32276152       0.05755015       0.00547729      -0.03287510
4
Properties=species:S:1:pos:R:3:mulliken:R:1:forces:R:3 smiles=OO connectivity="_JSON [[0, 1, 1.0], [0, 2, 1.0], [1, 3, 1.0]]" spin=0 method=GFN2-xTB frame_kind=torsion energy=-246.3643082822405 pbc="F F F"
O       -0.55421975       0.44001574      -0.00583660      -0.32055199      -0.00709699       0.02369053       0.06387999
O        0.55393161      -0.44036542       0.00699605      -0.32055201      -0.01892511      -0.05498940       0.03619787
H       -1.31267890      -0.15927750      -0.00168548       0.32055202      -0.00436557      -0.00503388      -0.06102561
H        1.13891245      -0.04970813       0.67003005       0.32055199       0.03038766       0.03633275      -0.03905226
4
Properties=species:S:1:pos:R:3:mulliken:R:1:forces:R:3 smiles=OO connectivity="_JSON [[0, 1, 1.0], [0, 2, 1.0], [1, 3, 1.0]]" spin=0 method=GFN2-xTB frame_kind=torsion energy=-246.34742267359692 pbc="F F F"
O       -0.55434171       0.43664182      -0.00747790      -0.31805806      -0.01708727       0.04180818       0.08186515
O        0.55356953      -0.43758077       0.00965978      -0.31805826      -0.02099184      -0.08804500       0.02343768
H       -1.31847424      -0.15671584      -0.00411519       0.31805829      -0.00818737      -0.00781080      -0.07607760
H        1.02236238      -0.20251508       0.82265459       0.31805803       0.04626649       0.05404761      -0.02922524
4
Properties=species:S:1:pos:R:3:mulliken:R:1:forces:R:3 smiles=OO connectivity="_JSON [[0, 1, 1.0], [0, 2, 1.0], [1, 3, 1.0]]" spin=0 method=GFN2-xTB frame_kind=torsion energy=-246.3257738884642 pbc="F F F"
O       -0.55468416       0.43422616      -0.00960367      -0.31524311       0.00441744       0.02239017       0.11590788
O        0.55322055      -0.43601342       0.01269868      -0.31524346      -0.06580269      -0.09733904       0.01205463
H       -1.32494978      -0.15305019      -0.00723412       0.31524349       0.00123475      -0.00329474      -0.10199078
H        0.88658739      -0.38164220       0.92050879       0.31524309       0.06015050       0.07824361      -0.02597172
4
Properties=species:S:1:pos:R:3:mulliken:R:1:forces:R:3 smiles=OO connectivity="_JSON [[0, 1, 1.0], [0, 2, 1.0], [1, 3, 1.0]]" spin=0 method=GFN2-xTB frame_kind=torsion energy=-246.29591183773502 pbc="F F F"
O       -0.55457886       0.43249749      -0.01165988      -0.31244062       0.00594814       0.03473124       0.17057356
O        0.55207899      -0.43555975       0.01570806      -0.31244118      -0.09460668      -0.14339953      -0.02848948
H       -1.33069622      -0.14813245      -0.01033481       0.31244116       0.00136513      -0.00550004      -0.14361212
H        0.74004091      -0.57507387       0.95629215       0.31244063       0.08729341       0.11416834       0.00152804
4
Properties=species:S:1:pos:R:3:mulliken:R:1:forces:R:3 smiles=OO connectivity="_JSON [[0, 1, 1.0], [0, 2, 1.0], [1, 3, 1.0]]" spin=0 method=GFN2-xTB frame_kind=torsion energy=-246.25436525907466 pbc="F F F"
O       -0.55481649       0.43200078      -0.01336985      -0.31012247       0.00636025       0.04753418       0.24288617
O        0.55091822      -0.43678842       0.01821497      -0.31012325      -0.12271988      -0.19057365      -0.09947649
H       -1.33609341      -0.14181523      -0.01297583       0.31012316       0.00222317      -0.00757226      -0.19599270
H        0.59354888      -0.77002482       0.92749858       0.31012256       0.11413645       0.15061173       0.05258302
4
Properties=species:S:1:pos:R:3:mulliken:R:1:forces:R:3 smiles=OO connectivity="_JSON [[0, 1, 1.0], [0, 2, 1.0], [1, 3, 1.0]]" spin=0 method=GFN2-xTB frame_kind=torsion energy=-246.20056488510255 pbc="F F F"
O       -0.55574097       0.43260393      -0.01446192      -0.30855866       0.00587125       0.05328180       0.31069517
O        0.54994324      -0.43974023       0.01989459      -0.30855963      -0.13434384      -0.21160218      -0.19119488
H       -1.34162964      -0.13377460      -0.01475926       0.30855946       0.00379301      -0.00869432      -0.24112202
H        0.45816234      -0.95370129       0.83587780       0.30855884       0.12467958       0.16701470       0.12162174
4
Properties=species:S:1:pos:R:3:mulliken:R:1:forces:R:3 smiles=OO connectivity="_JSON [[0, 1, 1.0], [0, 2, 1.0], [1, 3, 1.0]]" spin=0 method=GFN2-xTB frame_kind=torsion energy=-246.13937230613553 pbc="F F F"
O       -0.55736351       0.43411830      -0.01448666      -0.30779060       0.01133629       0.03947112       0.33803008
O        0.54914463      -0.44425536       0.02003715      -0.30779165      -0.12322809      -0.17767258      -0.26300653
H       -1.34757213      -0.12403944      -0.01499808       0.30779140       0.00466389      -0.00690964      -0.25400765
H        0.34384804      -1.11398332       0.68733814       0.30779085       0.10722791       0.14511110       0.17898409
4
Properties=species:S:1:pos:R:3:mulliken:R:1:forces:R:3 smiles=OO connectivity="_JSON [[0, 1, 1.0], [0, 2, 1.0], [1, 3, 1.0]]" spin=0 method=GFN2-xTB frame_kind=torsion energy=-246.08123341711007 pbc="F F F"
O       -0.55901552       0.43564329      -0.01280936      -0.30753996       0.00413303       0.03170643       0.29505761
O        0.54789698      -0.44937760       0.01771367      -0.30754155      -0.06691221      -0.10955502      -0.26755055
H       -1.35377659      -0.11326720      -0.01274255       0.30754109       0.00142632      -0.00821585      -0.21553547
H        0.25867584      -1.23993284       0.49134366       0.30754042       0.06135286       0.08606444       0.18802841
4
Properties=species:S:1:pos:R:3:mulliken:R:1:forces:R:3 smiles=OO connectivity="_JSON [[0, 1, 1.0], [0, 2, 1.0], [1, 3, 1.0]]" spin=0 method=GFN2-xTB frame_kind=torsion energy=-246.03912799090025 pbc="F F F"
O       -0.56052515       0.43693187      -0.00908723      -0.30769210       0.03955626       0.03378932       0.17142748
O        0.54679129      -0.45391909       0.01215512      -0.30769464      -0.00534674       0.00815474      -0.17890292
H       -1.35706984      -0.10550058      -0.00729284       0.30769380      -0.04170454      -0.02387943      -0.12430643
H        0.20531119      -1.32013601       0.26071819       0.30769294       0.00749502      -0.01806463       0.13178188
