4
Properties=species:S:1:pos:R:3:mulliken:R:1:forces:R:3 smiles=OO connectivity="_JSON [[0.0, 1.0, 1.0], [0.0, 2.0, 1.0], [1.0, 3.0, 1.0]]" spin=0 method=GFN2-xTB frame_kind=equilibrium charge=0 fit_config="{\"temperature\": 500.0, \"n_mode_frames\": 40, \"n_conformers\": 20, \"torsion_step_deg\": 15.0, \"hessian_delta\": 0.01, \"fmax\": 0.001, \"energy_weight\": null, \"regularization\": 0.001, \"seed\": 0, \"bond_form\": \"morse\", \"electrostatics\": \"fixed\", \"n_cycles\": 200, \"cycle_tol\": 0.0001}" energy=-246.39011351026977 pbc="F F F"
O       -0.55298763       0.44598750      -0.00428946      -0.32383459      -0.00026660      -0.00016701      -0.00000964
O        0.55299942      -0.44600276       0.00433940      -0.32383360       0.00019398       0.00034386      -0.00001391
H       -1.30320383      -0.16201528       0.00060056       0.32383288       0.00029421       0.00013014       0.00000999
H        1.30319204       0.16203054      -0.00065050       0.32383531      -0.00022160      -0.00030699       0.00001356
