2
Properties=species:S:1:pos:R:3:mulliken:R:1:forces:R:3 smiles="[O][O]" connectivity="_JSON [[0.0, 1.0, 1.0]]" spin=2 method=GFN2-xTB frame_kind=equilibrium charge=0 fit_config="{\"temperature\": 500.0, \"n_mode_frames\": 40, \"n_conformers\": 20, \"torsion_step_deg\": 15.0, \"hessian_delta\": 0.01, \"fmax\": 0.001, \"energy_weight\": null, \"regularization\": 0.001, \"seed\": 0, \"bond_form\": \"morse\", \"electrostatics\": \"fixed\", \"n_cycles\": 200, \"cycle_tol\": 0.0001}" energy=-215.08201505381476 pbc="F F F"
O        0.60490814      -0.00000000       0.00000000      -0.00000000      -0.00025962      -0.00000000      -0.00000000
O       -0.60490814       0.00000000      -0.00000000       0.00000000       0.00025962       0.00000000       0.00000000
