4
Properties=species:S:1:pos:R:3:initial_charges:R:1:bond-order:R:4:mulliken:R:1:forces:R:3 spin=3 connectivity="_JSON [[0, 1, 1.0], [1, 2, 1.0]]" frame_kind=reactant energy=-6148.969545206457 pbc="F F F"
O        0.64866527      -0.68726595       0.00000009       0.00000000      14.54681625       1.37474942       0.00360776       0.25798962      -0.09158152      -0.20572468      -0.54685547       0.00000006
O        0.81975402       0.60847100      -0.00000005       0.00000000       1.37474942      14.44121276       0.66222612       0.02249781      -0.25034306       0.63271190       0.40602305      -0.00000003
H       -0.10896142       0.93926939      -0.00000009       0.00000000       0.00360776       0.66222612       0.31254005       0.14012806       0.44074901      -0.58597900       0.12876020      -0.00000006
O       -1.61499632      -0.19559210       0.00000004       0.00000000       0.25798962       0.02249781       0.14012806      15.77703336      -0.09882443       0.15878125       0.01228001       0.00000003
4
Properties=species:S:1:pos:R:3:initial_charges:R:1:bond-order:R:4:mulliken:R:1:forces:R:3 spin=3 connectivity="_JSON [[0, 1, 1.0], [1, 2, 1.0]]" frame_kind=transition energy=-6148.753809813382 pbc="F F F"
O        0.71612925      -0.66383692      -0.00000005       0.00000000      14.17791721       1.56579907       0.00402480       0.23914782       0.00655554       1.89838177      -1.23537003      -0.00000000
O        0.80476328       0.58447494       0.00000002       0.00000000       1.56579907      14.17938778       0.36681180       0.12056877      -0.11628371      -0.30578626      -0.47522613      -0.00000014
H       -0.34895157       0.73880169       0.00000005       0.00000000       0.00402480       0.36681180       0.35130477       0.38731211       0.44527326      -2.61959600       0.31682678       0.00000015
O       -1.42747929       0.00544265      -0.00000001       0.00000000       0.23914782       0.12056877       0.38731211      15.92406149      -0.33554510       1.02717207       1.39354151      -0.00000001
4
Properties=species:S:1:pos:R:3:initial_charges:R:1:bond-order:R:4:mulliken:R:1:forces:R:3 spin=3 connectivity="_JSON [[0, 1, 1.0], [2, 3, 1.0]]" frame_kind=product energy=-6150.824010373794 pbc="F F F"
O        1.12557848      -0.77155686      -0.00000006       0.00000000      14.07579837       1.85563536       0.00284442       0.00928873       0.02821656      -0.08438156      -1.45207619      -0.00000010
O        1.24611157       0.42032799       0.00000002       0.00000000       1.85563536      14.14372434       0.02311858       0.00760156      -0.01503992       0.15624433       1.41529749       0.00000010
H       -1.00055860       0.88043586       0.00000006       0.00000000       0.00284442       0.02311858       0.37698116       0.76733509       0.41486038       0.24289645       0.37179675       0.00000003
O       -1.62666979       0.13567536      -0.00000001       0.00000000       0.00928873       0.00760156       0.76733509      16.07184865      -0.42803702      -0.31474976      -0.33529310      -0.00000003
