5
Properties=species:S:1:pos:R:3:initial_charges:R:1:bond-order:R:5:mulliken:R:1:forces:R:3 spin=1 connectivity="_JSON [[0, 1, 1.0], [1, 2, 1.0], [3, 4, 1.0]]" frame_kind=reactant energy=-4138.062923043725 pbc="F F F"
O       -0.04743881       0.86929638       0.02747870       0.00000000      14.95749985       1.32654008       0.01227978       0.01759844       0.00338731      -0.15865273      -0.52406051       0.57331230      -0.02080262
O        0.90522911      -0.03352590       0.10400260       0.00000000       1.32654008      14.45391534       0.75238224       0.00422224       0.00441287      -0.27073639       0.47719676      -0.37059536       0.51016103
H        1.13231284      -0.24569657      -0.81809984       0.00000000       0.01227978       0.75238224       0.35368048       0.00043174       0.00039298       0.44041640       0.13942670      -0.13726103      -0.48415955
H       -1.69941602      -0.79864649       0.04263158       0.00000000       0.01759844       0.00422224       0.00043174       0.96337570       0.98792938       0.01322125      -0.05312924      -0.06231271      -0.00747739
H       -2.02537229      -1.45640818      -0.07371610       0.00000000       0.00338731       0.00441287       0.00039298       0.98792938       1.05237453      -0.02424854      -0.03956183      -0.00305665       0.00229051
5
Properties=species:S:1:pos:R:3:initial_charges:R:1:bond-order:R:5:mulliken:R:1:forces:R:3 spin=1 connectivity="_JSON [[0, 1, 1.0], [1, 2, 1.0], [3, 4, 1.0]]" frame_kind=transition energy=-4136.982829962064 pbc="F F F"
O       -0.49617672       0.40990100      -0.01346493       0.00000000      14.96042188       1.06719135       0.00565784       0.41778003       0.11537622      -0.28321366       0.30486610       0.72820194      -0.04013507
O        0.75477557      -0.16150948       0.11870773       0.00000000       1.06719135      14.78053686       0.76293114       0.01583455       0.08494546      -0.35571968       0.21126180      -0.02785076       0.50847778
H        1.06718383      -0.20768292      -0.79528604       0.00000000       0.00565784       0.76293114       0.35698560       0.00011704      -0.00005999       0.43718419       0.17316269      -0.02384978      -0.48018987
H       -1.22618881      -0.46658631       0.01476878       0.00000000       0.41778003       0.01583455       0.00011704       0.59187726       0.49427951       0.24005581      -0.84780678      -0.95260397      -0.00903245
H       -1.83427903      -1.23910306      -0.04242856       0.00000000       0.11537622       0.08494546      -0.00005999       0.49427951       1.38207213      -0.03830666       0.15848068       0.27600782       0.02070502
5
Properties=species:S:1:pos:R:3:initial_charges:R:1:bond-order:R:5:mulliken:R:1:forces:R:3 spin=1 connectivity="_JSON [[0, 1, 1.0], [0, 3, 1.0], [1, 2, 1.0]]" frame_kind=product energy=-4136.955810939013 pbc="F F F"
O       -0.40945692       0.55160805      -0.03472279       0.00000000      15.10815091       0.98044879       0.00434597       0.74749581       0.01371229      -0.42707688      -0.10780113       0.77030725      -0.16840143
O        0.79699309      -0.20236156       0.10484857       0.00000000       0.98044879      15.09582567       0.77376132       0.00333676       0.00213254      -0.42775254       0.37042468      -0.37206163       0.53278999
H        1.13451670      -0.17965187      -0.79825286       0.00000000       0.00434597       0.77376132       0.36928347       0.00057372       0.00010100       0.42596727       0.15383563       0.04597514      -0.44905662
H       -1.07243041      -0.14241784       0.07237224       0.00000000       0.74749581       0.00333676       0.00057372       0.37102571       0.05212177       0.41272312      -0.38624669      -0.41915249       0.08590203
H       -2.18430743      -1.69215775      -0.06194815       0.00000000       0.01371229       0.00213254       0.00010100       0.05212177       1.89965435       0.01613903      -0.02972160      -0.02485291      -0.00070873
