3
Properties=species:S:1:pos:R:3:initial_charges:R:1:bond-order:R:3:mulliken:R:1:forces:R:3 spin=3 connectivity="_JSON [[1, 2, 1.0]]" frame_kind=reactant energy=-4102.419781778407 pbc="F F F"
O        1.16372018       0.00038753       0.00000012       0.00000000      14.79425632       1.10243685       0.02498935       0.03915874      -1.37058365      -0.00066596       0.00000045
O       -0.88362704      -0.00061873      -0.00000028       0.00000000       1.10243685      15.05686206       0.75834979      -0.45882435       2.16276656       0.00104567      -0.00000233
H       -1.85125286      -0.00109114       0.00000016       0.00000000       0.02498935       0.75834979       0.37732964       0.41966561      -0.79182435      -0.00037898       0.00000188
3
Properties=species:S:1:pos:R:3:initial_charges:R:1:bond-order:R:3:mulliken:R:1:forces:R:3 spin=3 connectivity="_JSON [[1, 2, 1.0]]" frame_kind=transition energy=-4102.297191580503 pbc="F F F"
O        0.82042460       0.00021892       0.00000000       0.00000000      14.33339398       1.47893938       0.17199792       0.00783436       0.55682824       0.00027196      -0.00000000
O       -0.59566318      -0.00047686       0.00000000       0.00000000       1.47893938      14.42830039       0.45960738      -0.18342358       0.05063804       0.00002914      -0.00000000
H       -1.79592095      -0.00106440       0.00000000       0.00000000       0.17199792       0.45960738       1.01721627       0.17558922      -0.60735236      -0.00030029       0.00000000
3
Properties=species:S:1:pos:R:3:initial_charges:R:1:bond-order:R:3:mulliken:R:1:forces:R:3 spin=3 connectivity="_JSON [[0, 1, 1.0]]" frame_kind=product energy=-4103.915695605465 pbc="F F F"
O        1.15880241       0.00038538      -0.00000000       0.00000000      14.13063249       1.86594820       0.00142940       0.00099496       1.52061103       0.00075280      -0.00000000
O       -0.03801413      -0.00020389       0.00000000       0.00000000       1.86594820      14.12678976       0.00695924       0.00015140      -1.47020834      -0.00072851      -0.00000000
H       -2.69194740      -0.00150383      -0.00000000       0.00000000       0.00142940       0.00695924       1.99390408      -0.00114636      -0.05029016      -0.00002348       0.00000000
