5
Properties=species:S:1:pos:R:3:initial_charges:R:1:bond-order:R:5:mulliken:R:1:forces:R:3 spin=2 connectivity="_JSON [[0, 1, 1.0], [1, 2, 1.0], [3, 4, 1.0]]" frame_kind=reactant energy=-6166.722769798599 pbc="F F F"
O        0.85776839       0.68167454       0.27962524       0.00000000      14.92961136       1.33090781       0.01126759       0.01240466       0.05488081      -0.16953612      -0.15439282       0.75071227       0.17668804
O        1.04739558      -0.58395619      -0.02090384       0.00000000       1.33090781      14.42664453       0.74537995       0.01038005       0.00327111      -0.25829172      -0.09218875      -0.56553096      -0.53508489
H        1.38942180      -0.99234993       0.79393032       0.00000000       0.01126759       0.74537995       0.34027789       0.00047683       0.00033487       0.45113143       0.26886098      -0.22428639       0.39424362
O       -1.90857517       0.02983009      -0.12192785       0.00000000       0.01240466       0.01038005       0.00047683      16.14994467       0.73262242      -0.45291432      -0.37390162      -0.21416310       0.06984633
H       -1.10563662       0.55648370      -0.29425153       0.00000000       0.05488081       0.00327111       0.00033487       0.73262242       0.34966934       0.42961072       0.35152668       0.25306923      -0.10528128
5
Properties=species:S:1:pos:R:3:initial_charges:R:1:bond-order:R:5:mulliken:R:1:forces:R:3 spin=2 connectivity="_JSON [[0, 1, 1.0], [1, 2, 1.0], [3, 4, 1.0]]" frame_kind=transition energy=-6165.918526117831 pbc="F F F"
O        0.42606784       0.62469647       0.20594138       0.00000000      14.84871752       1.12514215       0.00482599       0.21055697       0.35869800      -0.27397031       0.56663945       0.45317352      -0.02459377
O        1.03685517      -0.55293201      -0.09530229       0.00000000       1.12514215      14.60298277       0.75016583       0.12815306       0.00379237      -0.30511809       0.35948182      -0.10598441      -0.40501835
H        1.22584965      -0.92427245       0.77963889       0.00000000       0.00482599       0.75016583       0.33636693       0.00299774       0.00086538       0.45238906       0.06146664      -0.26465060       0.40942414
O       -1.76499783       0.05624460      -0.05215929       0.00000000       0.21055697       0.12815306       0.00299774      16.01382351       0.36166629      -0.35859878       0.32427042       0.29713459      -0.28297449
H       -0.64340085       0.48794559      -0.20164637       0.00000000       0.35869800       0.00379237       0.00086538       0.36166629       0.30438171       0.48529813      -1.31160371      -0.37989227       0.30288656
5
Properties=species:S:1:pos:R:3:initial_charges:R:1:bond-order:R:5:mulliken:R:1:forces:R:3 spin=2 connectivity="_JSON [[0, 1, 1.0], [0, 4, 1.0], [1, 2, 1.0]]" frame_kind=product energy=-6165.948032039255 pbc="F F F"
O        0.57697362       0.71928848       0.16648070       0.00000000      15.15489056       0.98000040       0.00442188       0.02782132       0.72046670      -0.44380043       0.26531994       0.57327332       0.32122895
O        1.07483128      -0.59662386      -0.10425766       0.00000000       0.98000040      15.09095447       0.77404095       0.01366358       0.00244466      -0.43055203       0.09327543      -0.38656491      -0.61087514
H        1.19659029      -0.93511757       0.79016073       0.00000000       0.00442188       0.77404095       0.36934914       0.00044414       0.00075919       0.42549235       0.06730568      -0.10929626       0.46321139
O       -2.25105646      -0.14034332      -0.02287344       0.00000000       0.02782132       0.01366358       0.00044414      15.84210408       0.07847284       0.01874702       0.05655603       0.03142945      -0.02458639
H       -0.31696488       0.64447820      -0.19303818       0.00000000       0.72046670       0.00244466       0.00075919       0.07847284       0.33763045       0.43011309      -0.48243922      -0.10907450      -0.14874641
