3
Properties=species:S:1:pos:R:3:initial_charges:R:1:bond-order:R:3:mulliken:R:1:forces:R:3 spin=1 connectivity="_JSON [[0, 1, 1.0], [1, 2, 1.0]]" frame_kind=reactant energy=-4106.076532086062 pbc="F F F"
O       -0.49169625      -0.26621775       0.00000001       0.00000000      14.97903330       1.33116224       0.01318994      -0.16169274      -0.70773309      -0.21344412       0.00000014
O        0.76950092       0.10799686      -0.00000025       0.00000000       1.33116224      14.46896981       0.75343358      -0.27678282       0.45434795       0.62819138      -0.00000027
H        1.28662911      -0.71706048       0.00000001       0.00000000       0.01318994       0.75343358       0.35642535       0.43847556       0.25369361      -0.41450204       0.00000013
3
Properties=species:S:1:pos:R:3:initial_charges:R:1:bond-order:R:3:mulliken:R:1:forces:R:3 spin=1 connectivity="_JSON [[0, 1, 1.0], [1, 2, 1.0]]" frame_kind=transition energy=-4104.414705956362 pbc="F F F"
O       -0.61809921      -0.17756452      -0.00000001       0.00000000      14.37291596       1.55404512       0.21134539      -0.06915323      -0.38770439      -0.57130652       0.00000025
O        0.56872867       0.17862057      -0.00000026       0.00000000       1.55404512      14.05135746       0.57313944      -0.08927101       2.27897432      -0.82304704       0.00000010
H        1.61380432      -0.87633743       0.00000004       0.00000000       0.21134539       0.57313944       0.89866669       0.15842424      -1.89124873       1.39454999      -0.00000035
3
Properties=species:S:1:pos:R:3:initial_charges:R:1:bond-order:R:3:mulliken:R:1:forces:R:3 spin=1 connectivity="_JSON [[0, 1, 1.0]]" frame_kind=product energy=-4102.381484553509 pbc="F F F"
O       -0.79608282      -0.09823972       0.00000001       0.00000000      13.91081230       1.63951221       0.43291894       0.00837828      -1.15967614      -0.37649894      -0.00000030
O        0.28519672       0.41690561       0.00000035       0.00000000       1.63951221      13.74844768       0.56204357       0.02499827       2.08788286      -0.56522941       0.00000001
H        2.07531949      -1.19394720      -0.00000012       0.00000000       0.43291894       0.56204357       1.07179059      -0.03337655      -0.92805853       0.94172446       0.00000029
