2
Properties=species:S:1:pos:R:3:initial_charges:R:1:bond-order:R:2:mulliken:R:1:forces:R:3 spin=0 connectivity="_JSON [[0, 1, 1.0]]" frame_kind=reactant energy=-31.98719472438688 pbc="F F F"
H        0.00000000       0.00000000       0.00000000       0.00000000       1.00000000       1.00000000       0.00000000      -0.00000000       0.00000000       0.06512216
H        0.00000000       0.00000000       0.74451338       0.00000000       1.00000000       1.00000000      -0.00000000      -0.00000000       0.00000000      -0.06512216
2
Properties=species:S:1:pos:R:3:initial_charges:R:1:bond-order:R:2:mulliken:R:1:forces:R:3 spin=0 connectivity="_JSON [[0, 1, 1.0]]" frame_kind=transition energy=-28.899317756919324 pbc="F F F"
H        0.00000000       0.00000000       0.00000000       0.00000000       1.00000000       1.00000000       0.00000000      -0.00000000      -0.00000000       4.30654398
H        0.00000000       0.00000000       1.50000000       0.00000000       1.00000000       1.00000000      -0.00000000      -0.00000000      -0.00000000      -4.30654398
2
Properties=species:S:1:pos:R:3:initial_charges:R:1:bond-order:R:2:mulliken:R:1:forces:R:3 spin=0 connectivity="_JSON []" frame_kind=product energy=-25.25883320189101 pbc="F F F"
H        0.00000000       0.00000000       0.00000000       0.00000000       1.00000000       1.00000000      -0.00000000      -0.00000000      -0.00000000       1.04783660
H        0.00000000       0.00000000       3.00000000       0.00000000       1.00000000       1.00000000       0.00000000       0.00000000       0.00000000      -1.04783660
