6
Properties=species:S:1:pos:R:3:initial_charges:R:1:bond-order:R:6:mulliken:R:1:forces:R:3 spin=2 connectivity="_JSON [[0, 1, 1.0], [0, 2, 1.0], [2, 3, 1.0], [4, 5, 1.0]]" frame_kind=reactant energy=-8213.69814611153 pbc="F F F"
O       -1.26049511      -0.76800708       0.20867418       0.00000000      15.13023685       0.74239548       0.98117389       0.00470883       0.00676952       0.00603149      -0.43565803      -0.47137585      -0.47175724       0.37243083
H       -0.37465230      -1.02671106      -0.07590833       0.00000000       0.74239548       0.35335406       0.00303774       0.00051123       0.00467494       0.03704670       0.42948993       0.43198447      -0.09194489      -0.17306735
O       -1.29068309       0.60307953      -0.19253965       0.00000000       0.98117389       0.00303774      15.07637942       0.77190778       0.01215264       0.00717068      -0.42591108       0.02303051       0.37191555      -0.61914385
H       -1.23144835       1.04990053       0.66052318       0.00000000       0.00470883       0.00051123       0.77190778       0.36822747       0.00300963       0.00049332       0.42557087      -0.00511577       0.18178765       0.42480134
O        1.65476904       0.75594130       0.07596416       0.00000000       0.00676952       0.00467494       0.01215264       0.00300963      14.08032003       1.84757220       0.02275052      -0.05493216       1.48647420       0.23443179
O        1.71519962      -0.42415684      -0.11736771       0.00000000       0.00603149       0.03704670       0.00717068       0.00049332       1.84757220      14.13417003      -0.01624221       0.07653071      -1.47634834      -0.23957731
6
Properties=species:S:1:pos:R:3:initial_charges:R:1:bond-order:R:6:mulliken:R:1:forces:R:3 spin=2 connectivity="_JSON [[0, 1, 1.0], [0, 2, 1.0], [2, 3, 1.0], [4, 5, 1.0]]" frame_kind=transition energy=-8212.63368964606 pbc="F F F"
O       -1.10060595      -0.71667311       0.10683684       0.00000000      15.07441724       0.36617124       1.07784116       0.01035637       0.14040967       0.05989055      -0.36454311       0.78237256      -1.03689001       0.15951864
H        0.13508687      -0.84104504      -0.02390108       0.00000000       0.36617124       0.30421947       0.00451207      -0.00021496       0.00701929       0.35492276       0.48168507      -1.65495528      -0.05622997       0.05139148
O       -1.29297269       0.59919111      -0.17126791       0.00000000       1.07784116       0.00451207      14.59046714       0.75100915       0.11837808       0.07958461      -0.31089611       0.00694308       0.59894391      -0.62531966
H       -1.09867652       1.05850440       0.66036769       0.00000000       0.01035637      -0.00021496       0.75100915       0.35107683       0.01516591       0.00070382       0.43595144      -0.00083051       0.19970587       0.45946636
O        1.30922332       0.66425079       0.06433194       0.00000000       0.14040967       0.00701929       0.11837808       0.01516591      14.34800505       1.52046706      -0.07472253       0.18605132       1.15510994       0.06457379
O        1.26063480      -0.57418177      -0.07702165       0.00000000       0.05989055       0.35492276       0.07958461       0.00070382       1.52046706      14.31938073      -0.16747476       0.68090342      -0.86090233      -0.10964296
6
Properties=species:S:1:pos:R:3:initial_charges:R:1:bond-order:R:6:mulliken:R:1:forces:R:3 spin=2 connectivity="_JSON [[0, 2, 1.0], [1, 5, 1.0], [2, 3, 1.0], [4, 5, 1.0]]" frame_kind=product energy=-8212.856297767748 pbc="F F F"
O       -1.38778792      -0.66789238      -0.00411626       0.00000000      14.84644988       0.14874687       1.37307595       0.00282428       0.00358722       0.00721007      -0.19094714       0.08755287      -0.85288534      -0.13171989
H        0.41029497      -0.92021165      -0.06320056       0.00000000       0.14874687       0.29633589       0.00506101      -0.00047334       0.00225097       0.63769510       0.45519175      -0.36760890      -0.13203804      -0.02707274
O       -1.59653892       0.61299049       0.18332478       0.00000000       1.37307595       0.00506101      14.49196328       0.64217319       0.00664360       0.00272015      -0.26081860      -0.47730703       0.65541052       0.10947880
H       -0.68655691       0.99274647       0.26615964       0.00000000       0.00282428      -0.00047334       0.64217319       0.29724892       0.14582868       0.00485667       0.45377080       0.44392528       0.12750448       0.00871877
O        1.14329510       0.72433443       0.20918964       0.00000000       0.00358722       0.00225097       0.00664360       0.14582868      14.85455278       1.37328711      -0.19307518      -0.11656486       0.84205118       0.15367837
O        1.32998349      -0.55192084      -0.03201179       0.00000000       0.00721007       0.63769510       0.00272015       0.00485667       1.37328711      14.50247416      -0.26412163       0.42991542      -0.64033686      -0.11319331
