3
Properties=species:S:1:pos:R:3:initial_charges:R:1:bond-order:R:3:mulliken:R:1:forces:R:3 spin=0 connectivity="_JSON [[0, 1, 1.0], [0, 2, 1.0]]" frame_kind=reactant energy=-2069.684672083153 pbc="F F F"
O        0.00110441       0.00000000       0.17577674       0.00000000      15.57238528       0.91761352       0.82489475      -0.65744677      -4.54276799       0.00000000     -82.56719332
H        0.03141434       0.00000000       0.77501068       0.00000000       0.91761352       0.58646103      -0.01809431       0.25700988       4.31738827       0.00000000      82.57271532
H        0.86510874       0.00000000      -0.21945723       0.00000000       0.82489475      -0.01809431       0.39232577       0.40043689       0.22543483       0.00000000      -0.00552680
3
Properties=species:S:1:pos:R:3:initial_charges:R:1:bond-order:R:3:mulliken:R:1:forces:R:3 spin=0 connectivity="_JSON [[0, 1, 1.0], [0, 2, 1.0]]" frame_kind=transition energy=-2075.3663240897854 pbc="F F F"
O        0.00170390       0.00000000      -0.34409952       0.00000000      15.36651805       0.97301300       0.79323788      -0.56638446      -0.64768810      -0.00000000       4.59164836
H       -0.06829815       0.00000000       1.40449984       0.00000000       0.97301300       0.70745953      -0.00238136       0.16095442       0.18552414       0.00000000      -4.59681247
H        0.97114473       0.00000000      -0.33909137       0.00000000       0.79323788      -0.00238136       0.39828340       0.40543004       0.46216753      -0.00000000       0.00514149
3
Properties=species:S:1:pos:R:3:initial_charges:R:1:bond-order:R:3:mulliken:R:1:forces:R:3 spin=0 connectivity="_JSON [[0, 2, 1.0]]" frame_kind=product energy=-2074.1429955269678 pbc="F F F"
O        0.10122015       0.00000000      -0.81122311       0.00000000      16.03173959       0.02338439       0.78522281      -0.42017339      -0.47866605       0.00008839       0.03000799
H       -0.25488218       0.00000000       2.16756710       0.00000000       0.02338439       1.95932948       0.00195748       0.00766432       0.01494321      -0.00010672      -0.11792500
H        1.05821251       0.00000000      -0.63503503       0.00000000       0.78522281       0.00195748       0.38780157       0.41250907       0.46377127       0.00002029       0.08782103
