4
Properties=species:S:1:pos:R:3:initial_charges:R:1:bond-order:R:4:mulliken:R:1:forces:R:3 spin=2 connectivity="_JSON [[0, 1, 1.0], [1, 2, 1.0]]" frame_kind=reactant energy=-4119.7489307509795 pbc="F F F"
O        0.70367623      -0.37268641       0.00001751       0.00000000      14.93233229       1.34370518       0.01593396       0.02335797      -0.15766470       0.50256047      -0.31915560       0.00015907
O       -0.29423627       0.48057471      -0.00037435       0.00000000       1.34370518      14.46220074       0.70989753       0.01969895      -0.26775120       0.20993763       0.70299911      -0.00022863
H       -1.10360959      -0.06843216      -0.00028297       0.00000000       0.01593396       0.70989753       0.36582960       0.08648829       0.41092531      -0.74215716      -0.42432347       0.00010027
H       -2.57038844      -1.09046960       0.00018295       0.00000000       0.02335797       0.01969895       0.08648829       1.84147361       0.01449059       0.02970938       0.04051987      -0.00003044
4
Properties=species:S:1:pos:R:3:initial_charges:R:1:bond-order:R:4:mulliken:R:1:forces:R:3 spin=2 connectivity="_JSON [[0, 1, 1.0], [1, 2, 1.0]]" frame_kind=transition energy=-4120.0693990039945 pbc="F F F"
O        0.64073401      -0.35313493       0.00000592       0.00000000      14.41406626       1.51521936       0.04763251       0.15572177      -0.06631995       0.41112557      -0.05334220       0.00004803
O       -0.36670967       0.40501036      -0.00027073       0.00000000       1.51521936      14.24929317       0.43634402       0.06648227      -0.13366941       0.75195254       0.62002478      -0.00022520
H       -1.28268063      -0.22604933      -0.00030387       0.00000000       0.04763251       0.43634402       0.54103719       0.45244576       0.26127025      -2.10971948      -1.24093471       0.00084720
H       -2.25590150      -0.87683992       0.00011238       0.00000000       0.15572177       0.06648227       0.45244576       1.44791199      -0.06128090       0.94625020       0.67463135      -0.00067094
4
Properties=species:S:1:pos:R:3:initial_charges:R:1:bond-order:R:4:mulliken:R:1:forces:R:3 spin=2 connectivity="_JSON [[0, 1, 1.0], [2, 3, 1.0]]" frame_kind=product energy=-4122.290593318575 pbc="F F F"
O        0.81186222      -0.30935897       0.00001320       0.00000000      14.11996061       1.86105917       0.00357641       0.00247035       0.00646673       0.75371973      -1.29191846       0.00042339
O        0.24153375       0.74299054      -0.00032385       0.00000000       1.86105917      14.11831918       0.01227371       0.00257988       0.00288403      -0.65934973       1.32647802      -0.00042934
H       -1.88771829      -0.48908307      -0.00024587       0.00000000       0.00357641       0.01227371       1.00266930       0.99262254      -0.00557098      -0.07166190      -0.03684435       0.00002826
H       -2.43023546      -0.99556234       0.00010023       0.00000000       0.00247035       0.00257988       0.99262254       1.00988676      -0.00377977      -0.02284374       0.00227643      -0.00002222
