2
Properties=species:S:1:pos:R:3:initial_charges:R:1:bond-order:R:2:mulliken:R:1:forces:R:3 spin=1 connectivity="_JSON [[0, 1, 1.0]]" frame_kind=reactant energy=-2060.48705365495 pbc="F F F"
O        0.00000000       0.00000000       0.00000000       0.00000000      16.04220030       0.78542902      -0.41381466      -0.00000000      -0.00000000      -0.38090750
H        0.00000000       0.00000000       0.97519183       0.00000000       0.78542902       0.38694167       0.41381466       0.00000000       0.00000000       0.38089398
2
Properties=species:S:1:pos:R:3:initial_charges:R:1:bond-order:R:2:mulliken:R:1:forces:R:3 spin=1 connectivity="_JSON [[0, 1, 1.0]]" frame_kind=transition energy=-2057.35878095926 pbc="F F F"
O        0.00000000       0.00000000       0.00000000       0.00000000      15.68430624       0.67676855      -0.18053739       0.00000000       0.00000000       3.45178017
H        0.00000000       0.00000000       1.70000000       0.00000000       0.67676855       0.96215666       0.18053739       0.00000000      -0.00000000      -3.45180531
2
Properties=species:S:1:pos:R:3:initial_charges:R:1:bond-order:R:2:mulliken:R:1:forces:R:3 spin=1 connectivity="_JSON []" frame_kind=product energy=-2056.08598875189 pbc="F F F"
O        0.00000000       0.00000000       0.00000000       0.00000000      15.99979292       0.00067302      -0.00023297      -0.00018028      -0.00020676       0.00529357
H        0.00000000       0.00000000       4.00000000       0.00000000       0.00067302       1.99886103       0.00023297       0.00010889       0.00012759      -0.00497610
