3
Properties=species:S:1:pos:R:3:initial_charges:R:1:bond-order:R:3:mulliken:R:1:forces:R:3 spin=2 connectivity="_JSON [[0, 1, 1.0]]" frame_kind=reactant energy=-2074.433709753638 pbc="F F F"
H        0.00000000      -0.00000002      -1.93516542       0.00000000       0.98030566       0.96743491       0.02557041       0.01334451      -0.00000000      -0.00000000      -0.13308527
H       -0.00000001       0.00000003      -1.19236052       0.00000000       0.96743491       1.00373298       0.03629609      -0.00373199      -0.00000000       0.00000000      -0.00714084
O        0.00000002      -0.00000001       0.82435836       0.00000000       0.02557041       0.03629609      15.95735853      -0.00961252       0.00000000      -0.00000000       0.14035208
3
Properties=species:S:1:pos:R:3:initial_charges:R:1:bond-order:R:3:mulliken:R:1:forces:R:3 spin=2 connectivity="_JSON [[0, 1, 1.0]]" frame_kind=transition energy=-2074.0197687366735 pbc="F F F"
H        0.00000000       0.00000000      -1.77325303       0.00000000       1.26989121       0.52021681       0.15320646       0.02834276      -0.00000001      -0.00000000      -0.02566284
H       -0.00000001       0.00000000      -0.85755041       0.00000000       0.52021681       0.65384851       0.40627906       0.20982781       0.00000002       0.00000000      -0.37676626
O        0.00000000       0.00000000       0.32763544       0.00000000       0.15320646       0.40627906      15.91685564      -0.23817058      -0.00000001      -0.00000000       0.40243833
3
Properties=species:S:1:pos:R:3:initial_charges:R:1:bond-order:R:3:mulliken:R:1:forces:R:3 spin=2 connectivity="_JSON [[1, 2, 1.0]]" frame_kind=product energy=-2074.11375983097 pbc="F F F"
H       -0.00000000       0.00000001      -2.22012104       0.00000000       1.84756648       0.08218921       0.02376310       0.02324061      -0.00000000       0.00000000      -0.10176910
H       -0.00000001      -0.00000002      -0.53023768       0.00000000       0.08218921       0.39658483       0.74072147       0.39025225       0.00000000      -0.00000001      -0.57567450
O       -0.00000001       0.00000000       0.44719031       0.00000000       0.02376310       0.74072147      16.06250113      -0.41349285      -0.00000000       0.00000001       0.67747422
