4
Properties=species:S:1:pos:R:3:initial_charges:R:1:bond-order:R:4:mulliken:R:1:forces:R:3 spin=1 connectivity="_JSON [[0, 1, 1.0], [2, 3, 1.0]]" frame_kind=reactant energy=-2092.4948145554117 pbc="F F F"
H       -1.53162069      -0.33400491       0.00210870       0.00000000       0.95615763       0.98389658       0.02018980       0.00085928       0.01944835      -0.00857809       0.03179565       0.00090484
H       -2.07783336       0.17220359       0.02900938       0.00000000       0.98389658       1.03599770       0.01092603       0.00305207      -0.01693619      -0.00480160      -0.03309022       0.00013520
O        0.78073256      -0.03048517      -0.09567442       0.00000000       0.02018980       0.01092603      16.01781976       0.78322618      -0.41608088       0.07499231      -0.45872687      -0.03106060
H        0.61063487       0.92542201      -0.03084986       0.00000000       0.00085928       0.00305207       0.78322618       0.38572503       0.41356872      -0.06164755       0.45994493       0.03001775
4
Properties=species:S:1:pos:R:3:initial_charges:R:1:bond-order:R:4:mulliken:R:1:forces:R:3 spin=1 connectivity="_JSON [[0, 1, 1.0], [2, 3, 1.0]]" frame_kind=transition energy=-2092.3617253025755 pbc="F F F"
H       -0.98112917      -0.12900097      -0.01888177       0.00000000       0.64390518       0.50382324       0.42958129      -0.00658140       0.21463585       0.57784328       0.04010370      -0.02631096
H       -1.85193375       0.11285026       0.02243844       0.00000000       0.50382324       1.32588023       0.17942737       0.00675970      -0.00794527      -0.23647518       0.02005237       0.01145738
O        0.22172810      -0.10226369      -0.07150800       0.00000000       0.42958129       0.17942737      15.80662304       0.79973485      -0.60768327      -0.38597797      -0.44356428      -0.00353344
H        0.39324822       0.85155001      -0.02745482       0.00000000      -0.00658140       0.00675970       0.79973485       0.39810147       0.40099269       0.04457286       0.38345556       0.01840629
4
Properties=species:S:1:pos:R:3:initial_charges:R:1:bond-order:R:4:mulliken:R:1:forces:R:3 spin=1 connectivity="_JSON [[0, 2, 1.0], [2, 3, 1.0]]" frame_kind=product energy=-2092.768578120513 pbc="F F F"
H       -0.52312637      -0.30216805      -0.04319936       0.00000000       0.39928611       0.03080030       0.79127291      -0.00579329       0.39221699      -0.46592820      -0.09037640       0.01858500
H       -2.54983436       0.25816794       0.05504220       0.00000000       0.03080030       1.93886635       0.01191514       0.00165388       0.00838216      -0.02029596       0.00262439       0.00080078
O        0.41268796      -0.09060990      -0.07842143       0.00000000       0.79127291       0.01191514      15.98289588       0.80808205      -0.79708299       0.48884172      -0.33373327      -0.04202827
H        0.44218617       0.86774559      -0.02882756       0.00000000      -0.00579329       0.00165388       0.80808205       0.40308968       0.39648384      -0.00252846       0.42136687       0.02265682
