4
Properties=species:S:1:pos:R:3:initial_charges:R:1:bond-order:R:4:mulliken:R:1:forces:R:3 spin=0 connectivity="_JSON [[0, 1, 1.0], [0, 2, 1.0], [2, 3, 1.0]]" frame_kind=reactant energy=-4123.323279324452 pbc="F F F"
O        0.52337101      -0.23892422       0.34028954       0.00000000      15.09955854       0.77298444       0.97869585       0.00388739      -0.42756311      -0.22187786      -0.02383668      -0.74126436
H       -0.07247997       0.10122752       1.01783311       0.00000000       0.77298444       0.36718233       0.00388713       0.00081588       0.42756511      -0.25756744       0.16153929       0.36007285
O        1.68683754      -0.52575586       1.12310520       0.00000000       0.97869585       0.00388713      15.09956881       0.77298367      -0.42756773       0.20510589      -0.45958257       0.58884087
H        2.31600020       0.10323325       0.75117146       0.00000000       0.00388739       0.00081588       0.77298367       0.36718161       0.42756573       0.27414686       0.32224259      -0.20754992
4
Properties=species:S:1:pos:R:3:initial_charges:R:1:bond-order:R:4:mulliken:R:1:forces:R:3 spin=0 connectivity="_JSON [[0, 1, 1.0], [0, 2, 1.0], [2, 3, 1.0]]" frame_kind=transition energy=-4122.173642407249 pbc="F F F"
O        0.36244407      -0.15718689       0.21921553       0.00000000      15.10635234       0.76416529       1.00304047       0.00533115      -0.43944463       3.53525906      -0.93052811       1.88439311
H       -0.12973846       0.06486937       1.02184167       0.00000000       0.76416529       0.35187866       0.00519496       0.00058128       0.43908991      -0.28491589       0.08375712       0.42383462
O        1.85219495      -0.54024913       1.26640581       0.00000000       1.00304047       0.00519496      15.10568991       0.76391545      -0.43892040      -3.56515447       0.54922344      -2.00620068
H        2.36882821       0.07234737       0.72493630       0.00000000       0.00533115       0.00058128       0.76391545       0.35162189       0.43927511       0.31461668       0.29759529      -0.30194661
4
Properties=species:S:1:pos:R:3:initial_charges:R:1:bond-order:R:4:mulliken:R:1:forces:R:3 spin=0 connectivity="_JSON [[0, 1, 1.0], [2, 3, 1.0]]" frame_kind=product energy=-4118.7213570549375 pbc="F F F"
O       -0.06244094       0.12149867      -0.01115330       0.00000000      15.12022506       0.76024197       0.96596902       0.02309164      -0.43476384       1.29107755      -0.32425798       0.44581417
H        0.02176280      -0.10195512       0.93518786       0.00000000       0.76024197       0.35333520       0.02149410      -0.00135019       0.43313946      -0.52313496      -0.01163275       0.53010280
O        2.29755835      -0.47175374       1.60424540       0.00000000       0.96596902       0.02149410      15.11752989       0.75884967      -0.43192134      -1.29568873       0.06450662      -0.49980466
H        2.19684901      -0.10800857       0.70411840       0.00000000       0.02309164      -0.00135019       0.75884967       0.35231743       0.43354572       0.52780725       0.27131520      -0.47632015
