5
Properties=species:S:1:pos:R:3:initial_charges:R:1:bond-order:R:5:mulliken:R:1:forces:R:3 spin=2 connectivity="_JSON [[0, 1, 1.0], [2, 3, 1.0], [2, 4, 1.0]]" frame_kind=reactant energy=-6169.467446333028 pbc="F F F"
O        1.31979083       0.58560369       0.09544116       0.00000000      14.10201352       1.85571222       0.00376893       0.00478684       0.00443852       0.01463998       0.15892408       1.45015759       0.14386747
O        1.23811494      -0.60370514      -0.01964889       0.00000000       1.85571222      14.11364045       0.00383720       0.02662194       0.00058276      -0.00019729      -0.06328344      -1.43151082      -0.14373915
O       -1.82615412      -0.06764085       0.05282595       0.00000000       0.00376893       0.00383720      16.01777672       0.78540286       0.80748510      -0.80913540      -0.54424899      -0.11570427      -0.16277541
H       -1.01784455      -0.55440442      -0.11988735       0.00000000       0.00478684       0.02662194       0.78540286       0.38839265      -0.00529072       0.40004322       0.30967116      -0.21138256      -0.05382045
H       -1.54366986       0.69015894       0.57017353       0.00000000       0.00443852       0.00058276       0.80748510      -0.00529072       0.40348533       0.39464950       0.13902443       0.30842757       0.21660228
5
Properties=species:S:1:pos:R:3:initial_charges:R:1:bond-order:R:5:mulliken:R:1:forces:R:3 spin=2 connectivity="_JSON [[0, 1, 1.0], [2, 3, 1.0], [2, 4, 1.0]]" frame_kind=transition energy=-6167.301973205045 pbc="F F F"
O        1.10397770       0.56486209       0.08700161       0.00000000      14.33481579       1.51904339       0.22956421       0.01181761       0.00882501      -0.05203300       0.70973950       0.66311706       0.03241875
O        0.69206640      -0.61215611      -0.02210642       0.00000000       1.51904339      14.26036252       0.13913848       0.38892198       0.00366704      -0.15556671       0.44783232      -0.53716986       0.01166134
O       -1.69361219      -0.08455668       0.07759484       0.00000000       0.22956421       0.13913848      15.79607688       0.36245712       0.78833516      -0.65778593       1.35009419      -0.88560673      -0.49474453
H       -0.40904889      -0.54668523      -0.14949673       0.00000000       0.01181761       0.38892198       0.36245712       0.30855618      -0.00056866       0.46440789      -2.57844962       0.69073650       0.34760348
H       -1.52314578       0.72854815       0.58591109       0.00000000       0.00882501       0.00366704       0.78833516      -0.00056866       0.39778595       0.40097775       0.07050399       0.06883465       0.10296870
5
Properties=species:S:1:pos:R:3:initial_charges:R:1:bond-order:R:5:mulliken:R:1:forces:R:3 spin=2 connectivity="_JSON [[0, 1, 1.0], [1, 3, 1.0], [2, 4, 1.0]]" frame_kind=product energy=-6167.0226555786985 pbc="F F F"
O        0.98916705       0.61299787       0.15640539       0.00000000      14.97507626       1.35818981       0.01992528       0.00348210       0.03431381      -0.19549363       0.01826290       0.76572854       0.19482509
O        0.78235148      -0.65383497      -0.12631707       0.00000000       1.35818981      14.55082798       0.01158575       0.66037210       0.00109695      -0.29103629       0.37524893      -0.71002262      -0.17207964
O       -1.89654233       0.02114514       0.12556014       0.00000000       0.01992528       0.01158575      15.87638423       0.13760735       0.74695417      -0.39622839      -0.13651117      -0.34854899      -0.18827357
H       -0.19760693      -0.73211475      -0.14284537       0.00000000       0.00348210       0.66037210       0.13760735       0.31067963      -0.00124160       0.44455022      -0.53118629      -0.03777427       0.00024182
H       -1.50713260       0.80181971       0.56610114       0.00000000       0.03431381       0.00109695       0.74695417      -0.00124160       0.34246047       0.43820810       0.27415254       0.33036352       0.16544415
