4
Properties=species:S:1:pos:R:3:initial_charges:R:1:bond-order:R:4:mulliken:R:1:forces:R:3 spin=2 connectivity="_JSON [[0, 1, 1.0], [1, 2, 1.0]]" frame_kind=reactant energy=-4119.704699351785 pbc="F F F"
O        0.17567800       0.79283140       0.28665546       0.00000000      14.92903492       1.33148494       0.01237408       0.02999583      -0.15144488      -0.55876732       0.55150637       0.09139431
O        1.15978191      -0.06964171       0.16366686       0.00000000       1.33148494      14.46136717       0.75143690       0.00360164      -0.27394533       0.77103096      -0.10010574       0.10575269
H        0.75325889      -0.87805222      -0.19425203       0.00000000       0.01237408       0.75143690       0.35340870       0.00159567       0.44059233      -0.21052562      -0.43655935      -0.19166507
H       -2.30884441       0.49859505      -0.27072977       0.00000000       0.02999583       0.00360164       0.00159567       1.99521110      -0.01520212      -0.00145589      -0.01496882      -0.00547032
4
Properties=species:S:1:pos:R:3:initial_charges:R:1:bond-order:R:4:mulliken:R:1:forces:R:3 spin=2 connectivity="_JSON [[0, 1, 1.0], [1, 2, 1.0]]" frame_kind=transition energy=-4119.335170881732 pbc="F F F"
O       -0.35936842       0.62838967       0.13128581       0.00000000      14.81232780       1.05428506       0.00148716       0.50725289      -0.18767645      -2.45653073       0.81044240      -0.16605309
O        0.99857775       0.01201305       0.16273698       0.00000000       1.05428506      14.73164093       0.76648634       0.14736878      -0.34989055       1.58522964      -0.26442401       0.19797065
H        0.81129358      -0.87271019      -0.18174443       0.00000000       0.00148716       0.76648634       0.35882324       0.00541503       0.43389412      -0.05492602      -0.52343897      -0.19415362
H       -1.67062854       0.57603996      -0.12693783       0.00000000       0.50725289       0.14736878       0.00541503       1.13261752       0.10367289       0.92584593      -0.02224486       0.16230565
4
Properties=species:S:1:pos:R:3:initial_charges:R:1:bond-order:R:4:mulliken:R:1:forces:R:3 spin=2 connectivity="_JSON [[0, 3, 1.0], [1, 2, 1.0]]" frame_kind=product energy=-4121.18270850063 pbc="F F F"
O       -0.90295606       0.75270187       0.07592571       0.00000000      15.93782132       0.01271337       0.07229696       0.76985903      -0.39634534       0.47834036       0.07831924       0.11516775
O        1.73944214      -0.56820521       0.09424718       0.00000000       0.01271337      16.17064718       0.72822582       0.00281646      -0.45720141       0.43310119      -0.13605462       0.03106832
H        0.78108857      -0.44133298      -0.03581332       0.00000000       0.07229696       0.72822582       0.34686798       0.00235061       0.42512932      -0.47186019       0.17982218      -0.02281836
H       -1.83770027       0.60056885      -0.14901911       0.00000000       0.76985903       0.00281646       0.00235061       0.36813904       0.42841743      -0.43937527      -0.12195292      -0.12349337
