6
Properties=species:S:1:pos:R:3:initial_charges:R:1:bond-order:R:6:mulliken:R:1:forces:R:3 spin=1 connectivity="_JSON [[0, 1, 1.0], [0, 2, 1.0], [2, 3, 1.0], [4, 5, 1.0]]" frame_kind=reactant energy=-6184.186268564876 pbc="F F F"
O       -0.66828882      -0.85978714       0.22736137       0.00000000      15.20959394       0.69639446       0.97881462       0.00405031       0.01055969       0.00065848      -0.45003575      -0.31594143      -0.72475266       0.08940314
H        0.29332787      -0.78236635       0.11744845       0.00000000       0.69639446       0.32283540      -0.00220649       0.00121112       0.11246263      -0.00157860       0.43544074       0.46157667       0.11034076      -0.06900833
O       -1.03292528       0.52749418       0.16872109       0.00000000       0.97881462      -0.00220649      15.11035139       0.77107997       0.00338242       0.03783599      -0.44962895       0.28381758       0.72493867       0.29934626
H       -1.68261467       0.51061341      -0.54307461       0.00000000       0.00405031       0.00121112       0.77107997       0.36319782       0.00099252       0.00052408       0.42947209      -0.28965114      -0.05826177      -0.35094332
O        1.93043661       0.30172635      -0.21416580       0.00000000       0.01055969       0.11246263       0.00338242       0.00099252      15.92124437       0.74841987      -0.39853075       0.24553129      -0.36001524       0.02813911
H        1.32435632       1.05648028      -0.34538419       0.00000000       0.00065848      -0.00157860       0.03783599       0.00052408       0.74841987       0.34757492       0.43328263      -0.38477999       0.30763780       0.00334205
6
Properties=species:S:1:pos:R:3:initial_charges:R:1:bond-order:R:6:mulliken:R:1:forces:R:3 spin=1 connectivity="_JSON [[0, 1, 1.0], [0, 2, 1.0], [2, 3, 1.0], [4, 5, 1.0]]" frame_kind=transition energy=-6184.323910722019 pbc="F F F"
O       -0.49416875      -0.74652289      -0.02793707       0.00000000      14.87779009       0.35628053       1.07228047       0.00397851       0.29193951       0.00563775      -0.30395343      -0.41421363      -0.61637688      -0.25210022
H        0.56325614      -0.44859763       0.23523889       0.00000000       0.35628053       0.28061791       0.00241776       0.00123531       0.37585203      -0.00086425       0.49223036       1.44846995       0.70189286      -0.16464341
O       -1.22238372       0.37430107       0.29037048       0.00000000       1.07228047       0.00241776      14.72321819       0.75694946       0.12537984       0.00787649      -0.34406111      -0.12435407       0.32679571       0.50424193
H       -1.69978042       0.54280029      -0.53306482       0.00000000       0.00397851       0.00123531       0.75694946       0.34372401       0.00124435       0.00027102       0.44629867      -0.34024894       0.09409475      -0.40009701
O        1.62637057       0.07029454      -0.12658889       0.00000000       0.29193951       0.37585203       0.12537984       0.00124435      15.78476473       0.79362647      -0.68640347      -0.43904556      -0.69184401       0.33506602
H        1.39099786       0.96188585      -0.42711225       0.00000000       0.00563775      -0.00086425       0.00787649       0.00027102       0.79362647       0.40167458       0.39588897      -0.13031107       0.18548595      -0.02258756
6
Properties=species:S:1:pos:R:3:initial_charges:R:1:bond-order:R:6:mulliken:R:1:forces:R:3 spin=1 connectivity="_JSON [[0, 2, 1.0], [1, 4, 1.0], [2, 3, 1.0], [4, 5, 1.0]]" frame_kind=product energy=-6185.359761202608 pbc="F F F"
O       -0.98021315      -0.87449992       0.00625696       0.00000000      14.90905252       0.04906669       1.32635410       0.01139592       0.00855228      -0.00025243      -0.15208454       0.21405022      -0.75730026      -0.04216666
H        1.11802806      -0.41262867       0.24131873       0.00000000       0.04906669       0.36620629       0.00089558       0.00043284       0.76474920      -0.00578505       0.41221723      -0.30816531      -0.21841548       0.12043641
O       -1.24967185       0.40791994       0.12160790       0.00000000       1.32635410       0.00089558      14.46179501       0.74616884       0.00431504       0.00823751      -0.27388304       0.22162877       0.70502787       0.30805821
H       -1.98507986       0.57255319      -0.49310562       0.00000000       0.01139592       0.00043284       0.74616884       0.34199783       0.00095693       0.00019906       0.44942429      -0.47059174       0.08924044      -0.28529417
O        1.84029295       0.11605357      -0.11173028       0.00000000       0.00855228       0.76474920       0.00431504       0.00095693      16.05864475       0.81058399      -0.82390109       0.54529821      -0.15193240      -0.03595899
H        1.42093554       0.94476309      -0.35344139       0.00000000      -0.00025243      -0.00578505       0.00823751       0.00019906       0.81058399       0.41056260       0.38822716      -0.20180252       0.33322303      -0.06482874
