5
Properties=species:S:1:pos:R:3:initial_charges:R:1:bond-order:R:5:mulliken:R:1:forces:R:3 spin=1 connectivity="_JSON [[0, 1, 1.0], [2, 3, 1.0], [2, 4, 1.0]]" frame_kind=reactant energy=-4139.9297412638325 pbc="F F F"
O        1.65726214       0.01455988       0.06095871       0.00000000      16.16466127       0.72370312       0.00837709       0.00544586       0.01805168      -0.46011950       0.33777344       0.22141906      -0.01665840
H        0.87231980      -0.54403684       0.22213897       0.00000000       0.72370312       0.33299575       0.06460346       0.00242076      -0.00099322       0.43863507      -0.44844699      -0.20387525      -0.01206616
O       -1.13713539      -0.21423843       0.18275426       0.00000000       0.00837709       0.06460346      15.96053035       0.79061691       0.78593029      -0.80502904       0.43651311      -0.35081114       0.14558791
H       -2.06711670      -0.29540471      -0.03916628       0.00000000       0.00544586       0.00242076       0.79061691       0.38046037      -0.00457023       0.41281317      -0.39966784      -0.05653535      -0.11349037
H       -0.96785766       0.72876266       0.25552709       0.00000000       0.01805168      -0.00099322       0.78593029      -0.00457023       0.37418086       0.41370031       0.07394543       0.38979090      -0.00369192
5
Properties=species:S:1:pos:R:3:initial_charges:R:1:bond-order:R:5:mulliken:R:1:forces:R:3 spin=1 connectivity="_JSON [[0, 1, 1.0], [2, 3, 1.0], [2, 4, 1.0]]" frame_kind=transition energy=-4137.009836114813 pbc="F F F"
O        0.90295847       0.04911655      -0.09023817       0.00000000      15.38728122       0.78395439       0.60562687       0.14880751       0.00697048      -0.46632023       1.52295283       0.49843772      -0.41174416
H        1.07967441      -0.71041266       0.47573914       0.00000000       0.78395439       0.38101568       0.00139227       0.00332525       0.00075864       0.41477689       0.08851099      -0.46857244       0.31357176
O       -0.70728164      -0.02901010      -0.02579493       0.00000000       0.60562687       0.00139227      15.17089415       0.43114302       0.76842961      -0.48874296      -2.92158910      -0.81947841      -0.10917663
H       -2.09552578      -0.44821172      -0.08118515       0.00000000       0.14880751       0.00332525       0.43114302       1.19676839       0.00547466       0.10724058       1.48264439       0.45892955       0.06434211
H       -0.82235326       0.82816051       0.40369182       0.00000000       0.00697048       0.00075864       0.76842961       0.00547466       0.35227517       0.43304572      -0.17269776       0.33073464       0.14313726
5
Properties=species:S:1:pos:R:3:initial_charges:R:1:bond-order:R:5:mulliken:R:1:forces:R:3 spin=1 connectivity="_JSON [[0, 1, 1.0], [0, 2, 1.0], [2, 4, 1.0]]" frame_kind=product energy=-4136.941892607528 pbc="F F F"
O        1.01768608       0.09889723      -0.01971843       0.00000000      15.09268417       0.77313813       0.97393848       0.00622854       0.00384073      -0.42491502       0.64067365       0.44353281      -0.16978832
H        1.16052219      -0.70524703       0.49318070       0.00000000       0.77313813       0.36796261       0.00388159       0.00006865       0.00065042       0.42714930       0.04920498      -0.40560462       0.23961267
O       -0.40844430       0.10540715      -0.12190727       0.00000000       0.97393848       0.00388159      15.08164774       0.01628422       0.77162065      -0.42368634      -0.60978927      -0.40472967      -0.33986353
H       -2.77658383      -0.66966613      -0.10341208       0.00000000       0.00622854       0.00006865       0.01628422       1.98084190       0.00460074      -0.00401202      -0.02677699      -0.01113898       0.00320202
H       -0.63570791       0.86025112       0.43406995       0.00000000       0.00384073       0.00065042       0.77162065       0.00460074       0.36835928       0.42546409      -0.05336297       0.37816041       0.26694182
