4
Properties=species:S:1:pos:R:3:initial_charges:R:1:bond-order:R:4:mulliken:R:1:forces:R:3 spin=2 connectivity="_JSON [[0, 1, 1.0], [2, 3, 1.0]]" frame_kind=reactant energy=-4120.759123884413 pbc="F F F"
O        1.32089469       0.04064989       0.00009608       0.00000000      15.16027809       0.76972034       0.97249640       0.06929648      -0.48589566      -1.33906813       0.19520587       0.00174162
H        1.35056747      -0.92998942      -0.00103809       0.00000000       0.76972034       0.36249311       0.00972713       0.00116567       0.42844688       0.00426661      -0.44535325      -0.00212874
O       -1.09032517      -0.27947681      -0.00071573       0.00000000       0.97249640       0.00972713      15.11563615       0.70067513      -0.39926741       1.17918874      -0.25549420      -0.00075957
H       -0.49178432       0.49523414       0.00413007       0.00000000       0.06929648       0.00116567       0.70067513       0.31543035       0.45671619       0.15594105       0.50558763       0.00117491
4
Properties=species:S:1:pos:R:3:initial_charges:R:1:bond-order:R:4:mulliken:R:1:forces:R:3 spin=2 connectivity="_JSON [[0, 1, 1.0], [2, 3, 1.0]]" frame_kind=transition energy=-4121.311438396663 pbc="F F F"
O        1.06083181       0.11557244       0.00083817       0.00000000      15.72790820       0.77589104       0.43084495       0.37155947      -0.65310184      -0.25583449       0.35682226       0.00053623
H        1.22903496      -0.83837335      -0.00078796       0.00000000       0.77589104       0.36667903       0.01282115       0.00090091       0.42185393      -0.02344022      -0.26718899      -0.00016937
O       -1.11201506      -0.24249230      -0.00038043       0.00000000       0.43084495       0.01282115      15.73044506       0.35276560      -0.26343838      -0.41775587      -0.23114896      -0.00151756
H       -0.08850043       0.29171048       0.00280267       0.00000000       0.37155947       0.00090091       0.35276560       0.28540146       0.49468628       0.69678134       0.14130066       0.00114004
4
Properties=species:S:1:pos:R:3:initial_charges:R:1:bond-order:R:4:mulliken:R:1:forces:R:3 spin=2 connectivity="_JSON [[0, 1, 1.0], [0, 3, 1.0]]" frame_kind=product energy=-4121.708431087345 pbc="F F F"
O        1.25252784       0.15699632      -0.00082323       0.00000000      16.02758533       0.81163137       0.01455965       0.77218511      -0.81298073       0.46510303       0.35247091      -0.00303412
H        1.20649379      -0.80189081       0.00009573       0.00000000       0.81163137       0.41015176       0.00349205      -0.00615912       0.39044197      -0.01215067      -0.40316083       0.00076916
O       -1.70162090      -0.46050235      -0.00226701       0.00000000       0.01455965       0.00349205      15.88071152       0.05621521       0.02251079      -0.04557416       0.02835254       0.00051472
H        0.33195059       0.43181412       0.00546696       0.00000000       0.77218511      -0.00615912       0.05621521       0.37770285       0.40002797      -0.40737950       0.02245437       0.00175758
