2
Properties=species:S:1:pos:R:3:initial_charges:R:1:bond-order:R:2:mulliken:R:1:esp:R:1:forces:R:3 smiles="[OH-]" connectivity="_JSON [[0, 1, 1.0]]" spin=0 method=B3LYP/6-31+g* frame_kind=equilibrium charge=-1 fit_config="{\"temperature\": 500.0, \"n_mode_frames\": 40, \"n_conformers\": 0, \"torsion_step_deg\": 15.0, \"hessian_delta\": 0.01, \"fmax\": 0.001, \"energy_weight\": null, \"regularization\": 0.001, \"seed\": 0, \"bond_form\": \"morse\", \"electrostatics\": \"esp\", \"n_cycles\": 200, \"cycle_tol\": 0.0001}" energy=-2062.497234218066 pbc="F F F"
O        0.48738216      -0.00000000       0.00000000      -1.00000000      17.84452122       0.81952605      -1.33202364      -1.30243642      -0.00119723       0.00000000      -0.00000000
H       -0.48738027       0.00000000      -0.00000000       0.00000000       0.81952605       0.51642668       0.33202364       0.30243642       0.00125094       0.00000000       0.00000000
