3
Properties=species:S:1:pos:R:3:bond-order:R:3:mulliken:R:1:esp:R:1:forces:R:3 smiles=O connectivity="_JSON [[0, 1, 1.0], [0, 2, 1.0]]" spin=0 method=B3LYP/6-31+g* frame_kind=equilibrium charge=0 fit_config="{\"temperature\": 500.0, \"n_mode_frames\": 40, \"n_conformers\": 0, \"torsion_step_deg\": 15.0, \"hessian_delta\": 0.01, \"fmax\": 0.001, \"energy_weight\": null, \"regularization\": 0.001, \"seed\": 0, \"bond_form\": \"morse\", \"electrostatics\": \"esp\", \"n_cycles\": 200, \"cycle_tol\": 0.0001}" energy=-2079.5280047029287 pbc="F F F"
O       -0.00173353       0.39080451      -0.00000000      16.43079535       0.72848122       0.72848202      -0.94387930      -0.81656981       0.00010535       0.00023287       0.00000000
H       -0.77062372      -0.19885405       0.00000000       0.72848122       0.32818402      -0.00054505       0.47193990       0.40790673      -0.00013716      -0.00034251       0.00000000
H        0.77236357      -0.19200465      -0.00000000       0.72848202      -0.00054505       0.32818425       0.47193939       0.40866309       0.00007154      -0.00028449      -0.00000000
