4
Properties=species:S:1:pos:R:3:initial_charges:R:1:bond-order:R:4:mulliken:R:1:esp:R:1:forces:R:3 smiles="[OH3+]" connectivity="_JSON [[0, 1, 1.0], [0, 2, 1.0], [0, 3, 1.0]]" spin=0 method=B3LYP/6-31+g* frame_kind=equilibrium charge=1 fit_config="{\"temperature\": 500.0, \"n_mode_frames\": 40, \"n_conformers\": 0, \"torsion_step_deg\": 15.0, \"hessian_delta\": 0.01, \"fmax\": 0.001, \"energy_weight\": null, \"regularization\": 0.001, \"seed\": 0, \"bond_form\": \"morse\", \"electrostatics\": \"esp\", \"n_cycles\": 200, \"cycle_tol\": 0.0001}" energy=-2086.838576151576 pbc="F F F"
O        0.00104464      -0.00017161       0.21633212       1.00000000      15.89304016       0.59273410       0.59273392       0.59273295      -0.83562056      -0.54635828      -0.00004997       0.00008280      -0.00071457
H       -0.44436457       0.83518208      -0.06938784       0.00000000       0.59273410       0.17787769       0.00282011       0.00282097       0.61187357       0.51510341       0.00030501      -0.00030405       0.00023067
H       -0.50155715      -0.80206043      -0.07035595       0.00000000       0.59273392       0.00282011       0.17787970       0.00282024       0.61187302       0.51573345       0.00003939      -0.00000251       0.00014543
H        0.94492638      -0.03298634      -0.07664951       0.00000000       0.59273295       0.00282097       0.00282024       0.17787787       0.61187398       0.51552141      -0.00011554       0.00008197       0.00015288
