5
Properties=species:S:1:pos:R:3:initial_charges:R:1:bond-order:R:5:mulliken:R:1:forces:R:3 spin=0 connectivity="_JSON [[0, 1, 1.0], [0, 2, 1.0], [3, 4, 1.0]]" frame_kind=reactant energy=-4143.148225899558 pbc="F F F"
O        0.00000000       0.00000000       0.00000000       0.00000000      16.92288422       0.47405869       0.77141852      -0.02155753      -0.00274681      -1.07202855      -1.42144069       0.00000000      -0.37344232
H        0.99000000       0.00000000       0.00000000       0.00000000       0.47405869       0.16991158      -0.00265214       0.17306042       0.00230970       0.59165587       1.75075462      -0.00000000      -0.23614783
H       -0.23915438       0.00000000       0.92808175       0.00000000       0.77141852      -0.00265214       0.40089850      -0.00023058       0.00007581       0.41524494      -0.08685459       0.00000000       0.47205474
O        2.70000000       0.00000000       0.00000000      -1.00000000      -0.02155753       0.17306042      -0.00023058      17.63258302       0.80265001      -1.29325267      -0.46623119       0.00000000      -0.27578710
H        2.94950156       0.00000000       0.93115250       0.00000000      -0.00274681       0.00230970       0.00007581       0.80265001       0.48095047       0.35838041       0.22379193      -0.00000000       0.41330629
5
Properties=species:S:1:pos:R:3:initial_charges:R:1:bond-order:R:5:mulliken:R:1:forces:R:3 spin=0 connectivity="_JSON [[0, 1, 1.0], [0, 2, 1.0], [3, 4, 1.0]]" frame_kind=transition energy=-4143.236862408361 pbc="F F F"
O        0.00000000       0.00000000       0.00000000       0.00000000      17.21522181       0.31511080       0.79411028       0.01224656      -0.00028028      -1.16820458      -0.08358676      -0.00000000      -0.19441100
H        1.22500000       0.00000000       0.00000000       0.00000000       0.31511080       0.21500735      -0.00018655       0.31511080      -0.00018655       0.57757207      -0.00000000       0.00000000      -0.12613854
H       -0.24976038       0.00000000       0.93211842       0.00000000       0.79411028      -0.00018655       0.44745334      -0.00028028       0.00006613       0.37941854      -0.12069393       0.00000000       0.25736423
O        2.45000000       0.00000000       0.00000000      -1.00000000       0.01224656       0.31511080      -0.00028028      17.21522181       0.79411028      -1.16820458       0.08358676       0.00000000      -0.19441100
H        2.69976038       0.00000000       0.93211842       0.00000000      -0.00028028      -0.00018655       0.00006613       0.79411028       0.44745334       0.37941854       0.12069393       0.00000000       0.25736423
5
Properties=species:S:1:pos:R:3:initial_charges:R:1:bond-order:R:5:mulliken:R:1:forces:R:3 spin=0 connectivity="_JSON [[0, 2, 1.0], [1, 3, 1.0], [3, 4, 1.0]]" frame_kind=product energy=-4143.148225899553 pbc="F F F"
O        0.00000000       0.00000000       0.00000000       0.00000000      17.63258302       0.17306042       0.80265001      -0.02155753      -0.00023058      -1.29325267       0.46623119       0.00000000      -0.27578710
H        1.71000000       0.00000000       0.00000000       0.00000000       0.17306042       0.16991158       0.00230970       0.47405869      -0.00265214       0.59165587      -1.75075462      -0.00000000      -0.23614783
H       -0.24950156       0.00000000       0.93115250       0.00000000       0.80265001       0.00230970       0.48095047      -0.00274681       0.00007581       0.35838041      -0.22379193      -0.00000000       0.41330629
O        2.70000000       0.00000000       0.00000000      -1.00000000      -0.02155753       0.47405869      -0.00274681      16.92288422       0.77141852      -1.07202855       1.42144069       0.00000000      -0.37344232
H        2.93915438       0.00000000       0.92808175       0.00000000      -0.00023058      -0.00265214       0.00007581       0.77141852       0.40089850       0.41524494       0.08685459       0.00000000       0.47205474
