6
Properties=species:S:1:pos:R:3:initial_charges:R:1:bond-order:R:6:mulliken:R:1:forces:R:3 spin=0 connectivity="_JSON [[0, 1, 1.0], [0, 2, 1.0], [3, 4, 1.0], [3, 5, 1.0]]" frame_kind=reactant energy=-4159.299458014868 pbc="F F F"
O        0.00000000       0.00000000       0.00000000       0.00000000      16.61219250       0.62910578       0.73829185       0.00777391      -0.00004305      -0.00004305      -0.99363897       0.20299294      -0.00000000      -0.38152292
H        0.97500000       0.00000000       0.00000000       0.00000000       0.62910578       0.25308732      -0.00096226       0.01452597      -0.00074462      -0.00074462       0.55286620       0.03436257      -0.00000000      -0.13303832
H       -0.23915438       0.00000000       0.92808175       0.00000000       0.73829185      -0.00096226       0.34575312       0.00124624       0.00016073       0.00016073       0.45767479      -0.22982007      -0.00000000       0.49387237
O        2.91000000       0.00000000       0.00000000       0.00000000       0.00777391       0.01452597       0.00124624      16.55754151       0.71247832       0.71247832      -1.00302214      -0.42172589      -0.00000000       0.06397097
H        3.49707964       0.75754080       0.00000000       0.00000000      -0.00004305      -0.00074462       0.00016073       0.71247832       0.30425146      -0.00222297       0.49306006       0.20725984       0.59346850      -0.02166798
H        3.49707964      -0.75754080      -0.00000000       0.00000000      -0.00004305      -0.00074462       0.00016073       0.71247832      -0.00222297       0.30425146       0.49306006       0.20725984      -0.59346850      -0.02166798
6
Properties=species:S:1:pos:R:3:initial_charges:R:1:bond-order:R:6:mulliken:R:1:forces:R:3 spin=0 connectivity="_JSON [[0, 1, 1.0], [0, 2, 1.0], [3, 4, 1.0], [3, 5, 1.0]]" frame_kind=transition energy=-4158.29610262451 pbc="F F F"
O        0.00000000       0.00000000       0.00000000       0.00000000      16.68962025       0.54472853       0.76389671       0.07684044      -0.00200082      -0.00200082      -1.03554214       3.09970682       0.00000000       0.03530658
H        1.21000000       0.00000000       0.00000000       0.00000000       0.54472853       0.24120486       0.00255374       0.09875307      -0.00103281      -0.00103281       0.55741271      -4.65944168      -0.00000000      -0.00011846
H       -0.25105447       0.00000000       0.93694805       0.00000000       0.76389671       0.00255374       0.38875444       0.00090409       0.00018299       0.00018299       0.42176252      -0.10627659       0.00000000      -0.00668449
O        2.50000000       0.00000000       0.00000000       0.00000000       0.07684044       0.09875307       0.00090409      16.42279926       0.68898583       0.68898583      -0.98863426       1.59375805       0.00000000      -0.02867392
H        2.86394048       0.81149913       0.41160235       0.00000000      -0.00200082      -0.00103281       0.00018299       0.68898583       0.26623646       0.00262720       0.52250058       0.03597812      -0.53660097       0.00012086
H        2.86394048      -0.81149913       0.41160235       0.00000000      -0.00200082      -0.00103281       0.00018299       0.68898583       0.00262720       0.26623646       0.52250058       0.03597812       0.53660097       0.00012086
6
Properties=species:S:1:pos:R:3:initial_charges:R:1:bond-order:R:6:mulliken:R:1:forces:R:3 spin=0 connectivity="_JSON [[0, 2, 1.0], [1, 3, 1.0], [3, 4, 1.0], [3, 5, 1.0]]" frame_kind=product energy=-4156.699582297016 pbc="F F F"
O        0.00000000       0.00000000       0.00000000       0.00000000      17.03268651       0.44444514       0.77468381       0.03778753       0.00351692       0.00351692      -1.14831841       1.96883722       0.00000000      -0.14088537
H        1.48000000       0.00000000       0.00000000       0.00000000       0.44444514       0.12778070       0.00387565       0.27489448      -0.00352708      -0.00352708       0.57802909      -7.58028576       0.00000000      -0.08321578
H       -0.24950156       0.00000000       0.93115250       0.00000000       0.77468381       0.00387565       0.41942794      -0.00044826       0.00034387       0.00034387       0.40088656      -0.36691477      -0.00000000       0.30799928
O        2.45000000       0.00000000       0.00000000       0.00000000       0.03778753       0.27489448      -0.00044826      16.22068213       0.66433662       0.66433662      -0.93079456       5.92074611       0.00000000      -0.32584417
H        2.81245501       0.80818689       0.40992234       0.00000000       0.00351692      -0.00352708       0.00034387       0.66433662       0.23515225      -0.00001989       0.55009866       0.02874993      -0.00256936       0.12103267
H        2.81245501      -0.80818689       0.40992234       0.00000000       0.00351692      -0.00352708       0.00034387       0.66433662      -0.00001989       0.23515225       0.55009866       0.02874993       0.00256936       0.12103267
