7
Properties=species:S:1:pos:R:3:initial_charges:R:1:bond-order:R:7:mulliken:R:1:forces:R:3 spin=0 connectivity="_JSON [[0, 1, 1.0], [0, 2, 1.0], [0, 3, 1.0], [4, 5, 1.0], [4, 6, 1.0]]" frame_kind=reactant energy=-4167.649302558173 pbc="F F F"
O        0.00000000       0.00000000       0.00000000       1.00000000      16.11788439       0.42881805       0.61488201       0.61488201      -0.00843004      -0.00067093      -0.00067093      -0.88334727      -0.37656773      -0.00000000      -0.36497337
H        1.00000000       0.00000000       0.00000000       0.00000000       0.42881805       0.12103431       0.00175128       0.00175128       0.15232805       0.00243230       0.00243230       0.64472622       1.46131798      -0.00000000      -0.03819096
H       -0.36245501      -0.80818689       0.40992234       0.00000000       0.61488201       0.00175128       0.19377350       0.00195093       0.00182222       0.00018489       0.00018300       0.59272609      -0.18431289      -0.26659331       0.19149238
H       -0.36245501       0.80818689       0.40992234       0.00000000       0.61488201       0.00175128       0.00195093       0.19377350       0.00182222       0.00018300       0.00018489       0.59272609      -0.18431289       0.26659331       0.19149238
O        2.75000000       0.00000000       0.00000000       0.00000000      -0.00843004       0.15232805       0.00182222       0.00182222      16.54086761       0.67483210       0.67483210      -1.01903713      -1.20839935       0.00000000       0.07175705
H        3.33707964       0.75754080       0.00000000       0.00000000      -0.00067093       0.00243230       0.00018489       0.00018300       0.67483210       0.25287303      -0.00204039       0.53610300       0.24643461       0.74584532      -0.02569012
H        3.33707964      -0.75754080      -0.00000000       0.00000000      -0.00067093       0.00243230       0.00018300       0.00018489       0.67483210      -0.00204039       0.25287303       0.53610300       0.24643461      -0.74584532      -0.02569012
7
Properties=species:S:1:pos:R:3:initial_charges:R:1:bond-order:R:7:mulliken:R:1:forces:R:3 spin=0 connectivity="_JSON [[0, 1, 1.0], [0, 2, 1.0], [0, 3, 1.0], [4, 5, 1.0], [4, 6, 1.0]]" frame_kind=transition energy=-4167.820253113348 pbc="F F F"
O        0.00000000       0.00000000       0.00000000       1.00000000      16.25650260       0.28093311       0.64473755       0.64473755       0.06647166       0.00068270       0.00068270      -0.94737393       0.97224348      -0.00000000      -0.40578874
H        1.22500000       0.00000000       0.00000000       0.00000000       0.28093311       0.16783042       0.00181753       0.00181753       0.28093311       0.00181753       0.00181753       0.63151663       0.00000000      -0.00000000      -0.04840246
H       -0.36022680      -0.80321852       0.40740232       0.00000000       0.64473755       0.00181753       0.21916938       0.00199239       0.00068270      -0.00011952       0.00010434       0.56580781      -0.45747882      -0.11908459       0.21507512
H       -0.36022680       0.80321852       0.40740232       0.00000000       0.64473755       0.00181753       0.00199239       0.21916938       0.00068270       0.00010434      -0.00011952       0.56580781      -0.45747882       0.11908459       0.21507512
O        2.45000000       0.00000000       0.00000000       0.00000000       0.06647166       0.28093311       0.00068270       0.00068270      16.25650260       0.64473755       0.64473755      -0.94737393      -0.97224348       0.00000000      -0.40578874
H        2.81022680       0.80321852       0.40740232       0.00000000       0.00068270       0.00181753      -0.00011952       0.00010434       0.64473755       0.21916938       0.00199239       0.56580781       0.45747882       0.11908459       0.21507512
H        2.81022680      -0.80321852       0.40740232       0.00000000       0.00068270       0.00181753       0.00010434      -0.00011952       0.64473755       0.00199239       0.21916938       0.56580781       0.45747882      -0.11908459       0.21507512
7
Properties=species:S:1:pos:R:3:initial_charges:R:1:bond-order:R:7:mulliken:R:1:forces:R:3 spin=0 connectivity="_JSON [[0, 2, 1.0], [0, 3, 1.0], [1, 4, 1.0], [4, 5, 1.0], [4, 6, 1.0]]" frame_kind=product energy=-4167.649302558165 pbc="F F F"
O        0.00000000       0.00000000       0.00000000       1.00000000      16.54086761       0.15232805       0.67483210       0.67483210      -0.00843004       0.00182222       0.00182222      -1.01903713       1.20839935       0.00000000       0.07175705
H        1.75000000       0.00000000       0.00000000       0.00000000       0.15232805       0.12103431       0.00243230       0.00243230       0.42881805       0.00175128       0.00175128       0.64472622      -1.46131798       0.00000000      -0.03819096
H       -0.58707964       0.75754080       0.00000000       0.00000000       0.67483210       0.00243230       0.25287303      -0.00204039      -0.00067093       0.00018489       0.00018300       0.53610300      -0.24643461       0.74584532      -0.02569012
H       -0.58707964      -0.75754080      -0.00000000       0.00000000       0.67483210       0.00243230      -0.00204039       0.25287303      -0.00067093       0.00018300       0.00018489       0.53610300      -0.24643461      -0.74584532      -0.02569012
O        2.75000000       0.00000000       0.00000000       0.00000000      -0.00843004       0.42881805      -0.00067093      -0.00067093      16.11788439       0.61488201       0.61488201      -0.88334727       0.37656773       0.00000000      -0.36497337
H        3.11245501      -0.80818689       0.40992234       0.00000000       0.00182222       0.00175128       0.00018489       0.00018300       0.61488201       0.19377350       0.00195093       0.59272609       0.18431289      -0.26659331       0.19149238
H        3.11245501       0.80818689       0.40992234       0.00000000       0.00182222       0.00175128       0.00018300       0.00018489       0.61488201       0.00195093       0.19377350       0.59272609       0.18431289       0.26659331       0.19149238
